LAMMPS (22 Jul 2025 - Update 3)
  using 12 OpenMP thread(s) per MPI task
package omp 0
using multi-threaded neighbor list subroutines
units lj
atom_style ellipsoid
dimension 2
boundary p p p

region       myregion block 0 80 0 80 -1 1
create_box   1 myregion
Created orthogonal box = (0 0 -1) to (80 80 1)
  1 by 1 by 1 MPI processor grid
create_atoms 1 random 1000 123456 myregion overlap 2.0
WARNING: Only inserted 993 particles out of 1000 (src/src/create_atoms.cpp:937)
Created 993 atoms
  using lattice units in orthogonal box = (0 0 -1) to (80 80 1)
  create_atoms CPU = 0.379 seconds

set          type 1 shape 3 1 1
Setting atom values ...
  993 settings made for shape
set          group all quat/random 123456
Setting atom values ...
  993 settings made for quat/random

pair_style   gayberne 1.0 3.0 1.0 10.0
pair_coeff   1 1 1.0 1.0 1 1 0.2 0 0 0

neighbor     1.0 bin

thermo 10
thermo_style custom step epair etotal

compute      mycompute all property/atom quatw quati quatj quatk shapex shapey shapez
dump mydump all custom 100 gb_base.lammpstraj id type x y z c_mycompute[*]
dump_modify mydump             colname c_mycompute[1] quatw             colname c_mycompute[2] quati             colname c_mycompute[3] quatj             colname c_mycompute[4] quatk             colname c_mycompute[5] shapex             colname c_mycompute[6] shapey             colname c_mycompute[7] shapez

minimize 1e-8 1e-8 1000 10000

CITE-CITE-CITE-CITE-CITE-CITE-CITE-CITE-CITE-CITE-CITE-CITE-CITE

Your simulation uses code contributions which should be cited:

- pair gayberne command: doi:10.1063/1.3058435

@Article{Brown09,
 author =  {W. M. Brown and M. K. Petersen and S. J. Plimpton and G. S. Grest},
 title =   {Liquid Crystal Nanodroplets in Solution},
 journal = {J.~Chem.\ Phys.},
 year =    2009,
 volume =  130,
 number =  4,
 pages =   {044901}
}

CITE-CITE-CITE-CITE-CITE-CITE-CITE-CITE-CITE-CITE-CITE-CITE-CITE

Generated 0 of 0 mixed pair_coeff terms from geometric mixing rule
Last active /omp style is pair_style gayberne/omp
Neighbor list info ...
  update: every = 1 steps, delay = 0 steps, check = yes
  max neighbors/atom: 2000, page size: 100000
  master list distance cutoff = 11
  ghost atom cutoff = 11
  binsize = 5.5, bins = 15 15 1
  1 neighbor lists, perpetual/occasional/extra = 1 0 0
  (1) pair gayberne/omp, perpetual
      attributes: half, newton on, omp
      pair build: half/bin/atomonly/newton/omp
      stencil: half/bin/2d
      bin: standard
Per MPI rank memory allocation (min/avg/max) = 21.12 | 21.12 | 21.12 Mbytes
   Step         E_pair         TotEng    
         0   3.125323e+19   3.125323e+19 
        10   1.5743321e+08  1.5743321e+08
        20   365.13014      365.13014    
        30   2.214455       2.214455     
        40  -0.68265296    -0.68265296   
        50  -0.83721515    -0.83721515   
        60  -0.88523798    -0.88523798   
        70  -0.92044441    -0.92044441   
        80  -0.95166368    -0.95166368   
        90  -0.97120625    -0.97120625   
       100  -0.99185895    -0.99185895   
       110  -1.0112611     -1.0112611    
       120  -1.0231492     -1.0231492    
       130  -1.0363454     -1.0363454    
       140  -1.0478986     -1.0478986    
       150  -1.0595786     -1.0595786    
       160  -1.0662123     -1.0662123    
       170  -1.0797034     -1.0797034    
       180  -1.0941994     -1.0941994    
       190  -1.1138282     -1.1138282    
       200  -1.1272826     -1.1272826    
       210  -1.1363821     -1.1363821    
       220  -1.1425023     -1.1425023    
       230  -1.1521589     -1.1521589    
       240  -1.1531869     -1.1531869    
       250  -1.1558529     -1.1558529    
       260  -1.1705866     -1.1705866    
       270  -1.1717288     -1.1717288    
       280  -1.1756674     -1.1756674    
       290  -1.1790456     -1.1790456    
       300  -1.1833467     -1.1833467    
       310  -1.1985629     -1.1985629    
       320  -1.2039876     -1.2039876    
       330  -1.2114956     -1.2114956    
       340  -1.2204604     -1.2204604    
       350  -1.2281062     -1.2281062    
       360  -1.2379953     -1.2379953    
       370  -1.2486632     -1.2486632    
       380  -1.2578592     -1.2578592    
       390  -1.2616155     -1.2616155    
       400  -1.2630551     -1.2630551    
       410  -1.273616      -1.273616     
       420  -1.2770471     -1.2770471    
       430  -1.2808583     -1.2808583    
       440  -1.2823193     -1.2823193    
       450  -1.2911451     -1.2911451    
       460  -1.2950472     -1.2950472    
       470  -1.2992527     -1.2992527    
       480  -1.3019342     -1.3019342    
       490  -1.3055564     -1.3055564    
       500  -1.3072613     -1.3072613    
       510  -1.3075539     -1.3075539    
       520  -1.3127456     -1.3127456    
       530  -1.3169304     -1.3169304    
       540  -1.3195831     -1.3195831    
       550  -1.320072      -1.320072     
       560  -1.3273489     -1.3273489    
       570  -1.3301213     -1.3301213    
       580  -1.3312225     -1.3312225    
       590  -1.3330424     -1.3330424    
       600  -1.3364965     -1.3364965    
       610  -1.3396777     -1.3396777    
       620  -1.3442868     -1.3442868    
       630  -1.3517552     -1.3517552    
       640  -1.3538666     -1.3538666    
       650  -1.3581425     -1.3581425    
       660  -1.3616117     -1.3616117    
       670  -1.3628759     -1.3628759    
       680  -1.3630684     -1.3630684    
       690  -1.3679112     -1.3679112    
       700  -1.3706362     -1.3706362    
       710  -1.3738271     -1.3738271    
       720  -1.3758853     -1.3758853    
       730  -1.3780329     -1.3780329    
       740  -1.3841729     -1.3841729    
       750  -1.3881829     -1.3881829    
       760  -1.3902168     -1.3902168    
       770  -1.3927474     -1.3927474    
       780  -1.3947187     -1.3947187    
       790  -1.3972514     -1.3972514    
       800  -1.3986646     -1.3986646    
       810  -1.4009464     -1.4009464    
       820  -1.40215       -1.40215      
       830  -1.4029704     -1.4029704    
       840  -1.4074864     -1.4074864    
       850  -1.409185      -1.409185     
       860  -1.410983      -1.410983     
       870  -1.4153895     -1.4153895    
       880  -1.4172797     -1.4172797    
       890  -1.4236946     -1.4236946    
       900  -1.4273995     -1.4273995    
       910  -1.4314474     -1.4314474    
       920  -1.4335764     -1.4335764    
       930  -1.4388989     -1.4388989    
       940  -1.4419141     -1.4419141    
       950  -1.450511      -1.450511     
       960  -1.4540301     -1.4540301    
       970  -1.4573879     -1.4573879    
       980  -1.4605974     -1.4605974    
       990  -1.4619428     -1.4619428    
      1000  -1.4641955     -1.4641955    
Loop time of 6.05957 on 12 procs for 1000 steps with 993 atoms

1087.4% CPU use with 1 MPI tasks x 12 OpenMP threads

Minimization stats:
  Stopping criterion = max iterations
  Energy initial, next-to-last, final = 
    3.12532295302282e+19  -1.46414075602208  -1.46419552030674
  Force two-norm initial, final = 3.4733591e+25 10.790557
  Force max component initial, final = 2.3437147e+25 6.0946755
  Final line search alpha, max atom move = 0.01398204 0.085215996
  Iterations, force evaluations = 1000 2105

MPI task timing breakdown:
Section |  min time  |  avg time  |  max time  |%varavg| %total
---------------------------------------------------------------
Pair    | 5.431      | 5.431      | 5.431      |   0.0 | 89.63
Neigh   | 0.010088   | 0.010088   | 0.010088   |   0.0 |  0.17
Comm    | 0.098962   | 0.098962   | 0.098962   |   0.0 |  1.63
Output  | 0.061276   | 0.061276   | 0.061276   |   0.0 |  1.01
Modify  | 0.37483    | 0.37483    | 0.37483    |   0.0 |  6.19
Other   |            | 0.08337    |            |       |  1.38

Nlocal:            993 ave         993 max         993 min
Histogram: 1 0 0 0 0 0 0 0 0 0
Nghost:            605 ave         605 max         605 min
Histogram: 1 0 0 0 0 0 0 0 0 0
Neighs:          28879 ave       28879 max       28879 min
Histogram: 1 0 0 0 0 0 0 0 0 0

Total # of neighbors = 28879
Ave neighs/atom = 29.082578
Neighbor list builds = 25
Dangerous builds = 0

thermo 100
thermo_style custom step temp epair etotal

timestep 0.001

fix cooling all nvt/asphere temp 0.5 0.01 $(100.0*dt)
fix cooling all nvt/asphere temp 0.5 0.01 0.10000000000000000555
run 10000
Generated 0 of 0 mixed pair_coeff terms from geometric mixing rule
Last active /omp style is pair_style gayberne/omp
Per MPI rank memory allocation (min/avg/max) = 22.21 | 22.21 | 22.21 Mbytes
   Step          Temp          E_pair         TotEng    
      1000   0             -1.4641955     -1.4641955    
      1100   0.0030366143  -1.4859786     -1.482945     
      1200   0.031019245   -1.5195515     -1.4885635    
      1300   0.088601562   -1.5569756     -1.4684633    
      1400   0.17578794    -1.5780881     -1.4024772    
      1500   0.29280081    -1.5675507     -1.2750447    
      1600   0.41121461    -1.5271553     -1.1163548    
      1700   0.50916244    -1.480119      -0.97146928   
      1800   0.50767719    -1.4300369     -0.922871     
      1900   0.45844486    -1.4193403     -0.96135712   
      2000   0.43098953    -1.4064614     -0.97590585   
      2100   0.44463461    -1.3904927     -0.9463059    
      2200   0.48166711    -1.3631131     -0.88193106   
      2300   0.46018226    -1.3592586     -0.89953974   
      2400   0.41984339    -1.3630103     -0.94358972   
      2500   0.41323316    -1.3834138     -0.97059679   
      2600   0.41003102    -1.385361      -0.97574286   
      2700   0.44137085    -1.3661429     -0.92521649   
      2800   0.42137358    -1.3733235     -0.95237425   
      2900   0.40931272    -1.3838643     -0.97496382   
      3000   0.38123627    -1.3834354     -1.002583     
      3100   0.40786101    -1.4105753     -1.003125     
      3200   0.40290313    -1.4090541     -1.0065567    
      3300   0.39356514    -1.4301579     -1.0369891    
      3400   0.36867049    -1.4426343     -1.074335     
      3500   0.36241483    -1.4718965     -1.1098466    
      3600   0.3717137     -1.4806981     -1.1093587    
      3700   0.36786828    -1.4838326     -1.1163347    
      3800   0.36607724    -1.4852019     -1.1194934    
      3900   0.35090462    -1.5120171     -1.1614658    
      4000   0.34046595    -1.5284379     -1.1883148    
      4100   0.32921494    -1.5332156     -1.2043322    
      4200   0.34040934    -1.5534904     -1.2134239    
      4300   0.35036095    -1.5685205     -1.2185124    
      4400   0.32234894    -1.5691973     -1.247173     
      4500   0.31302347    -1.5832226     -1.2705143    
      4600   0.3342141     -1.5997319     -1.2658543    
      4700   0.32413277    -1.6235434     -1.2997371    
      4800   0.30422596    -1.6447985     -1.340879     
      4900   0.28542758    -1.6731365     -1.3879963    
      5000   0.28577413    -1.6890343     -1.4035479    
      5100   0.27910287    -1.6966008     -1.417779     
      5200   0.29660366    -1.7174693     -1.4211643    
      5300   0.28787276    -1.7536317     -1.4660489    
      5400   0.257957      -1.7660699     -1.5083727    
      5500   0.26141608    -1.8007726     -1.5396198    
      5600   0.26328801    -1.813568      -1.5505452    
      5700   0.25283669    -1.8181585     -1.5655765    
      5800   0.26517427    -1.8433535     -1.5784463    
      5900   0.25653167    -1.8709009     -1.6146275    
      6000   0.2437528     -1.9038461     -1.6603388    
      6100   0.24567818    -1.9380019     -1.6925712    
      6200   0.23739405    -1.9665119     -1.7293569    
      6300   0.23415692    -1.9892904     -1.7553693    
      6400   0.23243401    -2.0185249     -1.7863249    
      6500   0.23601036    -2.0424747     -1.806702     
      6600   0.23419717    -2.074511      -1.8405497    
      6700   0.22275414    -2.110504      -1.8879742    
      6800   0.22169617    -2.1420712     -1.9205983    
      6900   0.21509555    -2.1667983     -1.9519193    
      7000   0.22027173    -2.2018259     -1.9817759    
      7100   0.20485384    -2.220684      -2.0160364    
      7200   0.19792872    -2.2507542     -2.0530248    
      7300   0.19259337    -2.2778519     -2.0854524    
      7400   0.18675801    -2.2908298     -2.1042599    
      7500   0.18229474    -2.3054719     -2.1233607    
      7600   0.18149635    -2.3275908     -2.1462772    
      7700   0.17862127    -2.3539246     -2.1754832    
      7800   0.1796299     -2.3851591     -2.2057101    
      7900   0.17314444    -2.4090537     -2.2360836    
      8000   0.1724237     -2.4469903     -2.2747403    
      8100   0.1610245     -2.4628937     -2.3020314    
      8200   0.16265901    -2.4959349     -2.3334397    
      8300   0.14775685    -2.5152967     -2.3676886    
      8400   0.14141675    -2.5312822     -2.3900078    
      8500   0.14265645    -2.5513687     -2.4088559    
      8600   0.13607404    -2.5763089     -2.4403719    
      8700   0.13682093    -2.5997613     -2.4630782    
      8800   0.1265258     -2.6214354     -2.495037     
      8900   0.12134759    -2.6393977     -2.5181723    
      9000   0.11496089    -2.6499587     -2.5351136    
      9100   0.1104393     -2.6703962     -2.5600681    
      9200   0.10586484    -2.6796718     -2.5739136    
      9300   0.10208634    -2.6977397     -2.5957562    
      9400   0.099761361   -2.7135116     -2.6138507    
      9500   0.095081217   -2.7296871     -2.6347016    
      9600   0.089071634   -2.7432127     -2.6542308    
      9700   0.089619927   -2.7653873     -2.6758577    
      9800   0.083916241   -2.7798164     -2.6959846    
      9900   0.075948327   -2.7909412     -2.7150693    
     10000   0.070776845   -2.8079615     -2.7372559    
     10100   0.066244104   -2.8225697     -2.7563923    
     10200   0.061927822   -2.8381407     -2.7762753    
     10300   0.061191676   -2.8555645     -2.7944345    
     10400   0.052103523   -2.8667713     -2.8147203    
     10500   0.047210527   -2.8779848     -2.8308218    
     10600   0.042604548   -2.8904512     -2.8478896    
     10700   0.037214624   -2.9029135     -2.8657363    
     10800   0.033422272   -2.9147898     -2.8814012    
     10900   0.028041981   -2.9254911     -2.8974773    
     11000   0.023025646   -2.9360708     -2.9130683    
Loop time of 29.9614 on 12 procs for 10000 steps with 993 atoms

Performance: 28837.113 tau/day, 333.763 timesteps/s, 331.427 katom-step/s
1095.6% CPU use with 1 MPI tasks x 12 OpenMP threads

MPI task timing breakdown:
Section |  min time  |  avg time  |  max time  |%varavg| %total
---------------------------------------------------------------
Pair    | 24.066     | 24.066     | 24.066     |   0.0 | 80.32
Neigh   | 0.0061648  | 0.0061648  | 0.0061648  |   0.0 |  0.02
Comm    | 0.39446    | 0.39446    | 0.39446    |   0.0 |  1.32
Output  | 0.40736    | 0.40736    | 0.40736    |   0.0 |  1.36
Modify  | 5.0238     | 5.0238     | 5.0238     |   0.0 | 16.77
Other   |            | 0.06401    |            |       |  0.21

Nlocal:            993 ave         993 max         993 min
Histogram: 1 0 0 0 0 0 0 0 0 0
Nghost:            606 ave         606 max         606 min
Histogram: 1 0 0 0 0 0 0 0 0 0
Neighs:          28749 ave       28749 max       28749 min
Histogram: 1 0 0 0 0 0 0 0 0 0

Total # of neighbors = 28749
Ave neighs/atom = 28.951662
Neighbor list builds = 31
Dangerous builds = 0
unfix cooling

fix heating all nvt/asphere temp 0.01 0.5 $(100.0*dt)
fix heating all nvt/asphere temp 0.01 0.5 0.10000000000000000555
run 10000
Generated 0 of 0 mixed pair_coeff terms from geometric mixing rule
Last active /omp style is pair_style gayberne/omp
Per MPI rank memory allocation (min/avg/max) = 22.21 | 22.21 | 22.21 Mbytes
   Step          Temp          E_pair         TotEng    
     11000   0.023025646   -2.9360708     -2.9130683    
     11100   0.022957852   -2.9448721     -2.9219374    
     11200   0.023205252   -2.9521277     -2.9289458    
     11300   0.025881668   -2.9586974     -2.9328418    
     11400   0.032206139   -2.9634943     -2.9313206    
     11500   0.040566403   -2.9664836     -2.925958     
     11600   0.047632309   -2.9688688     -2.9212844    
     11700   0.052846181   -2.9689711     -2.9161781    
     11800   0.060449009   -2.9726865     -2.9122984    
     11900   0.065988457   -2.9745139     -2.9085919    
     12000   0.072173374   -2.978599      -2.9064983    
     12100   0.074850993   -2.9781486     -2.9033729    
     12200   0.082375617   -2.9809402     -2.8986475    
     12300   0.090564868   -2.982472      -2.8919983    
     12400   0.09046938    -2.9788898     -2.8885115    
     12500   0.10095016    -2.9798759     -2.8790274    
     12600   0.10831189    -2.9801548     -2.871952     
     12700   0.11222985    -2.9792565     -2.8671397    
     12800   0.11991465    -2.9820161     -2.8622222    
     12900   0.12341932    -2.9810739     -2.8577788    
     13000   0.13066569    -2.9836836     -2.8531495    
     13100   0.13216312    -2.9790888     -2.8470588    
     13200   0.14117655    -2.9790914     -2.838057     
     13300   0.14906398    -2.9772933     -2.8283794    
     13400   0.15362976    -2.9772816     -2.8238066    
     13500   0.1538673     -2.9717746     -2.8180623    
     13600   0.15987475    -2.9665567     -2.806843     
     13700   0.17012402    -2.9652705     -2.7953178    
     13800   0.17623762    -2.9637099     -2.7876498    
     13900   0.18354899    -2.9638261     -2.7804619    
     14000   0.18578255    -2.9583368     -2.7727413    
     14100   0.18699512    -2.9573498     -2.770543     
     14200   0.19948954    -2.960567      -2.7612784    
     14300   0.198704      -2.9607551     -2.7622512    
     14400   0.200963      -2.9578815     -2.7571209    
     14500   0.20464941    -2.9520315     -2.7475882    
     14600   0.21520421    -2.9486917     -2.7337042    
     14700   0.22299669    -2.9491245     -2.7263524    
     14800   0.22468219    -2.9449713     -2.7205154    
     14900   0.23000845    -2.9408121     -2.7110353    
     15000   0.23807592    -2.9329226     -2.6950865    
     15100   0.22909334    -2.9256861     -2.6968234    
     15200   0.2443982     -2.9175553     -2.6734032    
     15300   0.25403251    -2.9100633     -2.6562866    
     15400   0.24711765    -2.8950916     -2.6482228    
     15500   0.2536709     -2.8934764     -2.6400609    
     15600   0.27097593    -2.8849139     -2.6142109    
     15700   0.2633594     -2.8832965     -2.6202023    
     15800   0.26904783    -2.8671244     -2.5983476    
     15900   0.2753987     -2.8617807     -2.5866593    
     16000   0.2838348     -2.8480954     -2.5645464    
     16100   0.2826417     -2.8276857     -2.5453286    
     16200   0.28572868    -2.8142889     -2.5288479    
     16300   0.30341497    -2.8173237     -2.5142143    
     16400   0.30736914    -2.8106117     -2.5035521    
     16500   0.31487435    -2.8083062     -2.493749     
     16600   0.31492898    -2.8049829     -2.490371     
     16700   0.31700221    -2.7925061     -2.4758231    
     16800   0.33503       -2.7908624     -2.4561698    
     16900   0.33356943    -2.7860515     -2.452818     
     17000   0.33775305    -2.7866802     -2.4492673    
     17100   0.35702286    -2.7832638     -2.4266004    
     17200   0.37150306    -2.7821798     -2.4110509    
     17300   0.35183971    -2.7716601     -2.4201748    
     17400   0.34802528    -2.7819625     -2.4342877    
     17500   0.34995072    -2.7742403     -2.424642     
     17600   0.36894911    -2.7552162     -2.3866387    
     17700   0.38530792    -2.7456497     -2.3607298    
     17800   0.39098483    -2.7452372     -2.3546461    
     17900   0.39579688    -2.7282607     -2.3328624    
     18000   0.38988329    -2.7356953     -2.3462046    
     18100   0.41620631    -2.7145138     -2.2987266    
     18200   0.40558444    -2.7066331     -2.3014571    
     18300   0.40533106    -2.713765      -2.3088421    
     18400   0.40567676    -2.7090732     -2.303805     
     18500   0.42189195    -2.6983937     -2.2769267    
     18600   0.44950549    -2.7086209     -2.2595681    
     18700   0.41839478    -2.7000024     -2.2820289    
     18800   0.4336331     -2.7104044     -2.277208     
     18900   0.44600527    -2.6896159     -2.2440598    
     19000   0.4493353     -2.6831781     -2.2342953    
     19100   0.4466041     -2.6499838     -2.2038294    
     19200   0.45951807    -2.6476645     -2.1886092    
     19300   0.45946005    -2.6403761     -2.1813787    
     19400   0.47029511    -2.6348977     -2.1650762    
     19500   0.47135042    -2.6231487     -2.1522729    
     19600   0.49932275    -2.6267302     -2.1279103    
     19700   0.49730854    -2.6048473     -2.1080396    
     19800   0.49226386    -2.5856109     -2.0938428    
     19900   0.491353      -2.578274      -2.0874158    
     20000   0.51171091    -2.5629942     -2.0517986    
     20100   0.51943936    -2.5533189     -2.0344026    
     20200   0.50188474    -2.5279738     -2.0265945    
     20300   0.53230244    -2.5135659     -1.9817995    
     20400   0.53121861    -2.4962942     -1.9656106    
     20500   0.52015842    -2.4810125     -1.9613779    
     20600   0.54457368    -2.4719911     -1.9279658    
     20700   0.55439076    -2.4606091     -1.9067766    
     20800   0.52402841    -2.4353046     -1.9118039    
     20900   0.53990369    -2.4220545     -1.8826945    
     21000   0.55099079    -2.4048943     -1.8544584    
Loop time of 29.8972 on 12 procs for 10000 steps with 993 atoms

Performance: 28899.071 tau/day, 334.480 timesteps/s, 332.139 katom-step/s
1099.0% CPU use with 1 MPI tasks x 12 OpenMP threads

MPI task timing breakdown:
Section |  min time  |  avg time  |  max time  |%varavg| %total
---------------------------------------------------------------
Pair    | 24.273     | 24.273     | 24.273     |   0.0 | 81.19
Neigh   | 0.0092392  | 0.0092392  | 0.0092392  |   0.0 |  0.03
Comm    | 0.38758    | 0.38758    | 0.38758    |   0.0 |  1.30
Output  | 0.45776    | 0.45776    | 0.45776    |   0.0 |  1.53
Modify  | 4.7041     | 4.7041     | 4.7041     |   0.0 | 15.73
Other   |            | 0.06548    |            |       |  0.22

Nlocal:            993 ave         993 max         993 min
Histogram: 1 0 0 0 0 0 0 0 0 0
Nghost:            614 ave         614 max         614 min
Histogram: 1 0 0 0 0 0 0 0 0 0
Neighs:          29795 ave       29795 max       29795 min
Histogram: 1 0 0 0 0 0 0 0 0 0

Total # of neighbors = 29795
Ave neighs/atom = 30.005035
Neighbor list builds = 42
Dangerous builds = 0
unfix heating

fix cooling all nvt/asphere temp 0.5 0.01 $(100.0*dt)
fix cooling all nvt/asphere temp 0.5 0.01 0.10000000000000000555
run 10000
Generated 0 of 0 mixed pair_coeff terms from geometric mixing rule
Last active /omp style is pair_style gayberne/omp
Per MPI rank memory allocation (min/avg/max) = 22.21 | 22.21 | 22.21 Mbytes
   Step          Temp          E_pair         TotEng    
     21000   0.55099079    -2.4048943     -1.8544584    
     21100   0.54047136    -2.3875328     -1.8476057    
     21200   0.55733144    -2.3886243     -1.8318541    
     21300   0.57299643    -2.3971357     -1.8247163    
     21400   0.5138459     -2.3757199     -1.8623914    
     21500   0.51516058    -2.3698262     -1.8551844    
     21600   0.52304431    -2.3505875     -1.8280699    
     21700   0.52250718    -2.3708292     -1.8488482    
     21800   0.50778429    -2.3808384     -1.8735655    
     21900   0.50035734    -2.3764888     -1.8766354    
     22000   0.48998303    -2.4085415     -1.9190519    
     22100   0.48497396    -2.4059135     -1.9214279    
     22200   0.47961908    -2.3999771     -1.9208411    
     22300   0.47769986    -2.4051529     -1.9279341    
     22400   0.4451006     -2.4074141     -1.9627618    
     22500   0.4353765     -2.3963399     -1.9614018    
     22600   0.4543837     -2.3998411     -1.945915     
     22700   0.46385009    -2.3975969     -1.934214     
     22800   0.4407143     -2.4030471     -1.9627766    
     22900   0.43724138    -2.4251113     -1.9883102    
     23000   0.41756954    -2.4362429     -2.0190939    
     23100   0.42236809    -2.4416769     -2.0197342    
     23200   0.41485509    -2.4359617     -2.0215244    
     23300   0.40200087    -2.4421118     -2.0405158    
     23400   0.40760747    -2.4400214     -2.0328244    
     23500   0.39020893    -2.4440579     -2.054242     
     23600   0.37059121    -2.4570691     -2.0868511    
     23700   0.38327519    -2.4612976     -2.0784083    
     23800   0.38934256    -2.4587327     -2.0697822    
     23900   0.37606995    -2.4723081     -2.0966168    
     24000   0.36496911    -2.496871      -2.1322694    
     24100   0.3529869     -2.5061135     -2.1534821    
     24200   0.35618333    -2.5240913     -2.1682667    
     24300   0.35259932    -2.5374465     -2.1852022    
     24400   0.35730819    -2.5690523     -2.212104     
     24500   0.34939875    -2.5805903     -2.2315434    
     24600   0.33958822    -2.6101258     -2.2708796    
     24700   0.33757182    -2.6119421     -2.2747103    
     24800   0.33540479    -2.6308232     -2.2957561    
     24900   0.31316253    -2.6381117     -2.3252646    
     25000   0.32166091    -2.6541442     -2.3328072    
     25100   0.311823      -2.666093      -2.354584     
     25200   0.305016      -2.6771229     -2.3724141    
     25300   0.31795143    -2.7030136     -2.3853824    
     25400   0.3089934     -2.7230746     -2.4143924    
     25500   0.29046185    -2.7307793     -2.4406099    
     25600   0.28482194    -2.7472824     -2.4627473    
     25700   0.28560863    -2.7679011     -2.4825801    
     25800   0.28071775    -2.7982584     -2.5178234    
     25900   0.27507553    -2.8122389     -2.5374404    
     26000   0.26401909    -2.8272018     -2.5634486    
     26100   0.2528903     -2.8404227     -2.5877871    
     26200   0.26371035    -2.8611323     -2.5976875    
     26300   0.25980146    -2.8815085     -2.6219687    
     26400   0.24681911    -2.8933948     -2.6468243    
     26500   0.24889463    -2.9165636     -2.6679196    
     26600   0.2314997     -2.9278828     -2.6966163    
     26700   0.23109917    -2.9441286     -2.7132622    
     26800   0.22636789    -2.9637658     -2.7376259    
     26900   0.22252865    -2.9856496     -2.7633451    
     27000   0.22401894    -3.0038083     -2.780015     
     27100   0.20684502    -3.0185639     -2.8119272    
     27200   0.19849512    -3.0292282     -2.8309329    
     27300   0.19874234    -3.0421024     -2.8435602    
     27400   0.19416041    -3.0641284     -2.8701635    
     27500   0.19968422    -3.0822527     -2.8827696    
     27600   0.18950377    -3.0991781     -2.9098652    
     27700   0.19275526    -3.1216035     -2.9290423    
     27800   0.1819793     -3.1375908     -2.9557947    
     27900   0.17340769    -3.1538619     -2.9806288    
     28000   0.16884262    -3.1781055     -3.0094329    
     28100   0.15764127    -3.1891865     -3.031704     
     28200   0.15753736    -3.2071215     -3.0497428    
     28300   0.14962164    -3.2163357     -3.0668647    
     28400   0.14388934    -3.2287064     -3.084962     
     28500   0.14294307    -3.245333      -3.1025339    
     28600   0.13994846    -3.2609832     -3.1211756    
     28700   0.13899455    -3.275877      -3.1370224    
     28800   0.12853063    -3.298628      -3.1702268    
     28900   0.12359634    -3.3060679     -3.182596     
     29000   0.11478784    -3.3174364     -3.2027641    
     29100   0.10971567    -3.3262728     -3.2166676    
     29200   0.10948917    -3.3437143     -3.2343354    
     29300   0.10800246    -3.3600707     -3.252177     
     29400   0.098894342   -3.3703734     -3.2715787    
     29500   0.10072309    -3.3853376     -3.2847159    
     29600   0.089198823   -3.3979195     -3.3088105    
     29700   0.083644425   -3.4086221     -3.3250619    
     29800   0.082750467   -3.4193058     -3.3366387    
     29900   0.073460312   -3.4327177     -3.3593314    
     30000   0.069010204   -3.4419902     -3.3730495    
     30100   0.062947682   -3.453344      -3.3904597    
     30200   0.060337773   -3.4670592     -3.4067822    
     30300   0.056401185   -3.4755957     -3.4192513    
     30400   0.047810003   -3.4839663     -3.4362045    
     30500   0.045282141   -3.4933085     -3.4480719    
     30600   0.04121414    -3.5025764     -3.4614037    
     30700   0.035339464   -3.5123413     -3.4770375    
     30800   0.030216537   -3.5196696     -3.4894835    
     30900   0.025618392   -3.5276        -3.5020074    
     31000   0.020669726   -3.5356604     -3.5150115    
Loop time of 31.8054 on 12 procs for 10000 steps with 993 atoms

Performance: 27165.180 tau/day, 314.412 timesteps/s, 312.211 katom-step/s
1100.3% CPU use with 1 MPI tasks x 12 OpenMP threads

MPI task timing breakdown:
Section |  min time  |  avg time  |  max time  |%varavg| %total
---------------------------------------------------------------
Pair    | 26.019     | 26.019     | 26.019     |   0.0 | 81.81
Neigh   | 0.0034906  | 0.0034906  | 0.0034906  |   0.0 |  0.01
Comm    | 0.39364    | 0.39364    | 0.39364    |   0.0 |  1.24
Output  | 0.40762    | 0.40762    | 0.40762    |   0.0 |  1.28
Modify  | 4.915      | 4.915      | 4.915      |   0.0 | 15.45
Other   |            | 0.06647    |            |       |  0.21

Nlocal:            993 ave         993 max         993 min
Histogram: 1 0 0 0 0 0 0 0 0 0
Nghost:            618 ave         618 max         618 min
Histogram: 1 0 0 0 0 0 0 0 0 0
Neighs:          31255 ave       31255 max       31255 min
Histogram: 1 0 0 0 0 0 0 0 0 0

Total # of neighbors = 31255
Ave neighs/atom = 31.475327
Neighbor list builds = 35
Dangerous builds = 0
unfix cooling

fix heating all nvt/asphere temp 0.01 0.5 $(100.0*dt)
fix heating all nvt/asphere temp 0.01 0.5 0.10000000000000000555
run 10000
Generated 0 of 0 mixed pair_coeff terms from geometric mixing rule
Last active /omp style is pair_style gayberne/omp
Per MPI rank memory allocation (min/avg/max) = 22.21 | 22.21 | 22.21 Mbytes
   Step          Temp          E_pair         TotEng    
     31000   0.020669726   -3.5356604     -3.5150115    
     31100   0.020204426   -3.5415933     -3.5214092    
     31200   0.018891228   -3.5444133     -3.5255411    
     31300   0.022876748   -3.5467283     -3.5238746    
     31400   0.028043249   -3.5461606     -3.5181456    
     31500   0.033265833   -3.545225      -3.5119926    
     31600   0.03927464    -3.542247      -3.503012     
     31700   0.046807908   -3.5406105     -3.4938497    
     31800   0.055123257   -3.538884      -3.4838163    
     31900   0.062091739   -3.5359111     -3.4738819    
     32000   0.06684026    -3.5322092     -3.4654363    
     32100   0.076046513   -3.5298735     -3.4539036    
     32200   0.083344176   -3.5285637     -3.4453035    
     32300   0.090584302   -3.527458      -3.436965     
     32400   0.097563359   -3.5281991     -3.430734     
     32500   0.10045377    -3.5231886     -3.422836     
     32600   0.10692868    -3.5184552     -3.4116342    
     32700   0.11456962    -3.5154863     -3.401032     
     32800   0.12187434    -3.5108341     -3.3890825    
     32900   0.12601658    -3.5060353     -3.3801456    
     33000   0.13379622    -3.5037115     -3.37005      
     33100   0.13925475    -3.5020592     -3.3629446    
     33200   0.14482616    -3.5004905     -3.3558102    
     33300   0.14897615    -3.4976365     -3.3488104    
     33400   0.15607877    -3.4936398     -3.3377183    
     33500   0.15917353    -3.4908995     -3.3318863    
     33600   0.16855804    -3.4852671     -3.3168788    
     33700   0.17299851    -3.4793937     -3.3065694    
     33800   0.17961121    -3.4736275     -3.2941972    
     33900   0.18621801    -3.4702642     -3.2842337    
     34000   0.1870463     -3.4640304     -3.2771724    
     34100   0.1982511     -3.4602901     -3.2622386    
     34200   0.20039787    -3.4549704     -3.2547744    
     34300   0.20694533    -3.4496636     -3.2429267    
     34400   0.2071844     -3.438983      -3.2320072    
     34500   0.22057132    -3.4406238     -3.2202746    
     34600   0.22237622    -3.4360608     -3.2139085    
     34700   0.22815954    -3.4274631     -3.1995333    
     34800   0.23286756    -3.4230639     -3.1904308    
     34900   0.24051012    -3.4226446     -3.1823767    
     35000   0.24248045    -3.4123633     -3.170127     
     35100   0.24745521    -3.4003093     -3.1531033    
     35200   0.25715562    -3.3965924     -3.1396957    
     35300   0.26652546    -3.3967276     -3.1304705    
     35400   0.2781851     -3.39336       -3.115455     
     35500   0.27587598    -3.3877891     -3.112191     
     35600   0.2787355     -3.3851493     -3.1066945    
     35700   0.29333724    -3.3686413     -3.0755994    
     35800   0.28662929    -3.3568661     -3.0705255    
     35900   0.29133095    -3.3502001     -3.0591626    
     36000   0.29826533    -3.3393196     -3.0413547    
     36100   0.32002632    -3.3514292     -3.0317252    
     36200   0.31033887    -3.3423805     -3.0323541    
     36300   0.31988867    -3.3289772     -3.0094107    
     36400   0.32653631    -3.3244796     -2.9982722    
     36500   0.33496909    -3.3182896     -2.9836579    
     36600   0.34113118    -3.3115833     -2.9707957    
     36700   0.34444934    -3.305712      -2.9616096    
     36800   0.34718085    -3.2906073     -2.943776     
     36900   0.34953483    -3.2863496     -2.9371667    
     37000   0.3514006     -3.2689469     -2.9179002    
     37100   0.37027524    -3.27449       -2.9045877    
     37200   0.36895836    -3.256718      -2.8881312    
     37300   0.3709418     -3.2496073     -2.879039     
     37400   0.38142404    -3.2395293     -2.8584894    
     37500   0.38198749    -3.230238      -2.8486352    
     37600   0.39343087    -3.2299487     -2.836914     
     37700   0.39835107    -3.2197283     -2.8217784    
     37800   0.39665337    -3.2042265     -2.8079726    
     37900   0.40269029    -3.1940648     -2.79178      
     38000   0.40352357    -3.1758264     -2.7727092    
     38100   0.42221681    -3.1716656     -2.749874     
     38200   0.42921294    -3.1619523     -2.7331716    
     38300   0.43289034    -3.1467        -2.7142456    
     38400   0.43131274    -3.1291825     -2.6983041    
     38500   0.44138036    -3.1333873     -2.6924515    
     38600   0.44924825    -3.1267559     -2.6779601    
     38700   0.45314486    -3.1164583     -2.6637698    
     38800   0.4611355     -3.096137      -2.6354659    
     38900   0.45109269    -3.0844474     -2.633809     
     39000   0.46124526    -3.0811068     -2.620326     
     39100   0.47300273    -3.0578341     -2.5853077    
     39200   0.46385731    -3.0301297     -2.5667395    
     39300   0.47644465    -3.029069      -2.5531041    
     39400   0.47759929    -3.0125159     -2.5353975    
     39500   0.49003686    -3.0007404     -2.511197     
     39600   0.48969778    -2.9816453     -2.4924406    
     39700   0.50854633    -2.9956721     -2.4876379    
     39800   0.48674362    -2.9816857     -2.4954323    
     39900   0.51085671    -2.9721054     -2.4617631    
     40000   0.52481351    -2.9590317     -2.4347467    
     40100   0.51855243    -2.9499974     -2.4319672    
     40200   0.53623446    -2.9375171     -2.4018226    
     40300   0.55144519    -2.9356081     -2.3847182    
     40400   0.53718223    -2.9137812     -2.37714      
     40500   0.55344485    -2.9115123     -2.3586248    
     40600   0.58488128    -2.9048669     -2.3205746    
     40700   0.57652656    -2.8799426     -2.3039966    
     40800   0.54601756    -2.8719232     -2.3264555    
     40900   0.57146113    -2.8673773     -2.2964916    
     41000   0.56997492    -2.8479832     -2.2785823    
Loop time of 33.3072 on 12 procs for 10000 steps with 993 atoms

Performance: 25940.372 tau/day, 300.236 timesteps/s, 298.134 katom-step/s
1106.8% CPU use with 1 MPI tasks x 12 OpenMP threads

MPI task timing breakdown:
Section |  min time  |  avg time  |  max time  |%varavg| %total
---------------------------------------------------------------
Pair    | 27.963     | 27.963     | 27.963     |   0.0 | 83.96
Neigh   | 0.0081651  | 0.0081651  | 0.0081651  |   0.0 |  0.02
Comm    | 0.38863    | 0.38863    | 0.38863    |   0.0 |  1.17
Output  | 0.43423    | 0.43423    | 0.43423    |   0.0 |  1.30
Modify  | 4.4473     | 4.4473     | 4.4473     |   0.0 | 13.35
Other   |            | 0.06576    |            |       |  0.20

Nlocal:            993 ave         993 max         993 min
Histogram: 1 0 0 0 0 0 0 0 0 0
Nghost:            679 ave         679 max         679 min
Histogram: 1 0 0 0 0 0 0 0 0 0
Neighs:          32462 ave       32462 max       32462 min
Histogram: 1 0 0 0 0 0 0 0 0 0

Total # of neighbors = 32462
Ave neighs/atom = 32.690836
Neighbor list builds = 47
Dangerous builds = 0
unfix heating

fix cooling all nvt/asphere temp 0.5 0.01 $(100.0*dt)
fix cooling all nvt/asphere temp 0.5 0.01 0.10000000000000000555
run 10000
Generated 0 of 0 mixed pair_coeff terms from geometric mixing rule
Last active /omp style is pair_style gayberne/omp
Per MPI rank memory allocation (min/avg/max) = 22.22 | 22.22 | 22.22 Mbytes
   Step          Temp          E_pair         TotEng    
     41000   0.56997492    -2.8479832     -2.2785823    
     41100   0.55092589    -2.8066149     -2.2562438    
     41200   0.56539147    -2.7912459     -2.2264239    
     41300   0.56301347    -2.8133564     -2.2509099    
     41400   0.54179002    -2.7839953     -2.2427509    
     41500   0.54304135    -2.7822216     -2.2397271    
     41600   0.52629274    -2.7690626     -2.2432998    
     41700   0.51314879    -2.7669866     -2.2543546    
     41800   0.49568686    -2.7597539     -2.2645663    
     41900   0.49585417    -2.7524354     -2.2570806    
     42000   0.50782299    -2.7521486     -2.244837     
     42100   0.52786969    -2.7596807     -2.2323426    
     42200   0.506647      -2.7681732     -2.2620364    
     42300   0.47455696    -2.7686003     -2.2945213    
     42400   0.47734439    -2.7721589     -2.2952953    
     42500   0.47139386    -2.7773362     -2.3064171    
     42600   0.44594976    -2.7656672     -2.3201665    
     42700   0.43331329    -2.7835309     -2.350654     
     42800   0.44372397    -2.7794496     -2.3361725    
     42900   0.47959357    -2.7880843     -2.3089737    
     43000   0.43676656    -2.7804145     -2.3440878    
     43100   0.44176888    -2.7767729     -2.3354489    
     43200   0.42900854    -2.800877      -2.3723005    
     43300   0.42146165    -2.8140985     -2.3930612    
     43400   0.41264625    -2.8260443     -2.4138136    
     43500   0.40118094    -2.824717      -2.4239401    
     43600   0.39239065    -2.8366883     -2.4446928    
     43700   0.37485472    -2.8425329     -2.4680557    
     43800   0.38671538    -2.8421955     -2.4558695    
     43900   0.38451329    -2.8490034     -2.4648774    
     44000   0.3868688     -2.8561458     -2.4696666    
     44100   0.37938067    -2.8781318     -2.4991332    
     44200   0.37653762    -2.8868578     -2.5106994    
     44300   0.36040442    -2.8872763     -2.5272349    
     44400   0.34891344    -2.9098306     -2.5612685    
     44500   0.35050619    -2.9184777     -2.5683245    
     44600   0.35852546    -2.9336312     -2.5754668    
     44700   0.33641812    -2.9401656     -2.6040862    
     44800   0.3439065     -2.9557778     -2.6122176    
     44900   0.33571233    -2.9717798     -2.6364056    
     45000   0.33223074    -2.9822508     -2.6503546    
     45100   0.3294729     -2.99645       -2.6673089    
     45200   0.32607956    -3.014326      -2.6885748    
     45300   0.30581076    -3.0158632     -2.7103604    
     45400   0.30662548    -3.0413903     -2.7350736    
     45500   0.30119071    -3.0446409     -2.7437535    
     45600   0.29595731    -3.0737052     -2.7780459    
     45700   0.29097987    -3.0767531     -2.7860662    
     45800   0.2944013     -3.1017789     -2.8076741    
     45900   0.27307011    -3.1137517     -2.8409566    
     46000   0.27128268    -3.1226795     -2.8516701    
     46100   0.26188356    -3.1395856     -2.8779657    
     46200   0.26506193    -3.1467011     -2.8819061    
     46300   0.25316389    -3.159912      -2.9070031    
     46400   0.24526632    -3.1624827     -2.9174634    
     46500   0.2517824     -3.1919822     -2.9404533    
     46600   0.23623678    -3.2013533     -2.9653545    
     46700   0.24620854    -3.2287263     -2.9827657    
     46800   0.23047242    -3.2337872     -3.0035468    
     46900   0.23041279    -3.2586835     -3.0285027    
     47000   0.2173463     -3.2657054     -3.048578     
     47100   0.22097143    -3.2841364     -3.0633875    
     47200   0.20929793    -3.2999242     -3.0908371    
     47300   0.19762156    -3.3085223     -3.1110998    
     47400   0.20299763    -3.3314922     -3.128699     
     47500   0.2026376     -3.3458352     -3.1434017    
     47600   0.1884497     -3.3579035     -3.1696436    
     47700   0.18294972    -3.3643771     -3.1816116    
     47800   0.1746688     -3.3820581     -3.2075652    
     47900   0.17312909    -3.3974726     -3.2245179    
     48000   0.16757629    -3.4058821     -3.2384746    
     48100   0.15989252    -3.4129398     -3.2532083    
     48200   0.16118276    -3.4246707     -3.2636503    
     48300   0.1506106     -3.4332239     -3.282765     
     48400   0.15228676    -3.4540311     -3.3018977    
     48500   0.14523388    -3.4661589     -3.3210713    
     48600   0.14790642    -3.4840622     -3.3363047    
     48700   0.13229209    -3.493678      -3.3615191    
     48800   0.12853841    -3.5102859     -3.3818769    
     48900   0.12839996    -3.5184883     -3.3902177    
     49000   0.12071265    -3.5330662     -3.4124751    
     49100   0.11693272    -3.5460934     -3.4292785    
     49200   0.10788484    -3.5579461     -3.45017      
     49300   0.10311981    -3.5681739     -3.465158     
     49400   0.098559112   -3.5751891     -3.4767293    
     49500   0.096350155   -3.5892051     -3.4929519    
     49600   0.091704744   -3.5986463     -3.5070339    
     49700   0.084819645   -3.6064995     -3.5217652    
     49800   0.081358765   -3.6193261     -3.5380492    
     49900   0.076328058   -3.631237      -3.5549858    
     50000   0.069529408   -3.6416608     -3.5722014    
     50100   0.068323597   -3.6533989     -3.5851441    
     50200   0.061210882   -3.6633076     -3.6021584    
     50300   0.055103788   -3.6717781     -3.6167298    
     50400   0.049172437   -3.6794993     -3.6303764    
     50500   0.043914307   -3.6861759     -3.6423058    
     50600   0.03906613    -3.6955628     -3.656536     
     50700   0.035988073   -3.7052175     -3.6692657    
     50800   0.031040496   -3.7130651     -3.6820559    
     50900   0.024015116   -3.7182486     -3.6942576    
     51000   0.019718444   -3.7250408     -3.7053422    
Loop time of 34.2301 on 12 procs for 10000 steps with 993 atoms

Performance: 25240.938 tau/day, 292.140 timesteps/s, 290.096 katom-step/s
1107.0% CPU use with 1 MPI tasks x 12 OpenMP threads

MPI task timing breakdown:
Section |  min time  |  avg time  |  max time  |%varavg| %total
---------------------------------------------------------------
Pair    | 29.217     | 29.217     | 29.217     |   0.0 | 85.35
Neigh   | 0.006072   | 0.006072   | 0.006072   |   0.0 |  0.02
Comm    | 0.3943     | 0.3943     | 0.3943     |   0.0 |  1.15
Output  | 0.42744    | 0.42744    | 0.42744    |   0.0 |  1.25
Modify  | 4.116      | 4.116      | 4.116      |   0.0 | 12.02
Other   |            | 0.06955    |            |       |  0.20

Nlocal:            993 ave         993 max         993 min
Histogram: 1 0 0 0 0 0 0 0 0 0
Nghost:            751 ave         751 max         751 min
Histogram: 1 0 0 0 0 0 0 0 0 0
Neighs:          33465 ave       33465 max       33465 min
Histogram: 1 0 0 0 0 0 0 0 0 0

Total # of neighbors = 33465
Ave neighs/atom = 33.700906
Neighbor list builds = 33
Dangerous builds = 0
unfix cooling
Total wall time: 0:02:45
