LAMMPS (22 Jul 2025 - Update 3)
  using 12 OpenMP thread(s) per MPI task
units lj
atom_style ellipsoid
dimension 2
boundary p p p

region       myregion block 0 300 0 300 -1 1
create_box   1 myregion
Created orthogonal box = (0 0 -1) to (300 300 1)
  1 by 1 by 1 MPI processor grid
create_atoms 1 random 10000 123456 myregion overlap 2.0
Created 10000 atoms
  using lattice units in orthogonal box = (0 0 -1) to (300 300 1)
  create_atoms CPU = 3.904 seconds

set          type 1 shape 3 1 1
Setting atom values ...
  10000 settings made for shape
set          group all quat/random 123456
Setting atom values ...
  10000 settings made for quat/random

pair_style   gayberne 1.0 3.0 1.0 4.0
pair_coeff   1 1 1.0 1.0 1 1 0.2 0 0 0

neighbor     1.0 bin

thermo 10
thermo_style custom step temp epair etotal press

compute      0 all property/atom quatw quati quatj quatk shapex shapey shapez
dump mydump all custom 100 gb_base.lammpstraj id type x y z c_0[*]
dump_modify mydump colname c_0[1] quatw colname c_0[2] quati colname c_0[3] quatj colname c_0[4] quatk               colname c_0[5] shapex colname c_0[6] shapey colname c_0[7] shapez

minimize 1e-6 1e-8 1000 10000

CITE-CITE-CITE-CITE-CITE-CITE-CITE-CITE-CITE-CITE-CITE-CITE-CITE

Your simulation uses code contributions which should be cited:

- pair gayberne command: doi:10.1063/1.3058435

@Article{Brown09,
 author =  {W. M. Brown and M. K. Petersen and S. J. Plimpton and G. S. Grest},
 title =   {Liquid Crystal Nanodroplets in Solution},
 journal = {J.~Chem.\ Phys.},
 year =    2009,
 volume =  130,
 number =  4,
 pages =   {044901}
}

CITE-CITE-CITE-CITE-CITE-CITE-CITE-CITE-CITE-CITE-CITE-CITE-CITE

Generated 0 of 0 mixed pair_coeff terms from geometric mixing rule
Neighbor list info ...
  update: every = 1 steps, delay = 0 steps, check = yes
  max neighbors/atom: 2000, page size: 100000
  master list distance cutoff = 5
  ghost atom cutoff = 5
  binsize = 2.5, bins = 120 120 1
  1 neighbor lists, perpetual/occasional/extra = 1 0 0
  (1) pair gayberne, perpetual
      attributes: half, newton on
      pair build: half/bin/atomonly/newton
      stencil: half/bin/2d
      bin: standard
Per MPI rank memory allocation (min/avg/max) = 21.74 | 21.74 | 21.74 Mbytes
   Step          Temp          E_pair         TotEng         Press     
         0   0              3.0760474e+17  3.0760474e+17  2.191406e+19 
        10   0              1039659.8      1039659.8      6145929.6    
        20   0              174.43642      174.43642      479.95799    
        30   0              0.40341677     0.40341677     1.9273427    
        40   0             -0.42653659    -0.42653659    -0.046954351  
        50   0             -0.48455934    -0.48455934    -0.069098354  
        60   0             -0.52180637    -0.52180637    -0.059977532  
        70   0             -0.56291502    -0.56291502    -0.054304713  
        80   0             -0.59469291    -0.59469291    -0.047391639  
        90   0             -0.62160466    -0.62160466    -0.038513535  
       100   0             -0.64458964    -0.64458964    -0.040577634  
       110   0             -0.6637788     -0.6637788     -0.034868379  
       120   0             -0.68267287    -0.68267287    -0.032612756  
       130   0             -0.69866578    -0.69866578    -0.027466231  
       140   0             -0.71671337    -0.71671337    -0.028269913  
       150   0             -0.73580557    -0.73580557    -0.028232707  
       160   0             -0.75018337    -0.75018337    -0.026925611  
       170   0             -0.7608484     -0.7608484     -0.026381469  
       180   0             -0.77212355    -0.77212355    -0.025044912  
       190   0             -0.78305612    -0.78305612    -0.023966645  
       200   0             -0.79573653    -0.79573653    -0.022527094  
       210   0             -0.80240136    -0.80240136    -0.024243988  
       220   0             -0.81288317    -0.81288317    -0.02129239   
       230   0             -0.81820166    -0.81820166    -0.022833303  
       240   0             -0.82526533    -0.82526533    -0.021465017  
       250   0             -0.8339323     -0.8339323     -0.020552102  
       260   0             -0.84097791    -0.84097791    -0.020592169  
       270   0             -0.84829968    -0.84829968    -0.021322719  
       280   0             -0.85383354    -0.85383354    -0.020504904  
       290   0             -0.85905724    -0.85905724    -0.020053168  
       300   0             -0.86344258    -0.86344258    -0.019518813  
       310   0             -0.86911679    -0.86911679    -0.017335956  
       320   0             -0.87331634    -0.87331634    -0.018473567  
       330   0             -0.88117487    -0.88117487    -0.017180915  
       340   0             -0.88849893    -0.88849893    -0.017166639  
       350   0             -0.89665017    -0.89665017    -0.016644369  
       360   0             -0.90168136    -0.90168136    -0.017014408  
       370   0             -0.90884778    -0.90884778    -0.017200807  
       380   0             -0.91303058    -0.91303058    -0.016120625  
       390   0             -0.91768393    -0.91768393    -0.016813216  
       400   0             -0.92319705    -0.92319705    -0.016202544  
       410   0             -0.92589275    -0.92589275    -0.016471909  
       420   0             -0.93011082    -0.93011082    -0.015894362  
       430   0             -0.93274648    -0.93274648    -0.015969967  
       440   0             -0.93650849    -0.93650849    -0.015907888  
       450   0             -0.94072339    -0.94072339    -0.014977135  
       460   0             -0.94465984    -0.94465984    -0.015392986  
       470   0             -0.94810258    -0.94810258    -0.014083159  
       480   0             -0.95190383    -0.95190383    -0.014833297  
       490   0             -0.9555316     -0.9555316     -0.014518532  
       500   0             -0.9597989     -0.9597989     -0.014547228  
       510   0             -0.96345366    -0.96345366    -0.013470571  
       520   0             -0.9659539     -0.9659539     -0.014208332  
       530   0             -0.96962671    -0.96962671    -0.014291893  
       540   0             -0.97240674    -0.97240674    -0.01421581   
       550   0             -0.97633399    -0.97633399    -0.014390602  
       560   0             -0.98015682    -0.98015682    -0.014608045  
       570   0             -0.98344979    -0.98344979    -0.014299863  
       580   0             -0.98569071    -0.98569071    -0.014127513  
       590   0             -0.98769641    -0.98769641    -0.013315601  
       600   0             -0.99038907    -0.99038907    -0.012839072  
       610   0             -0.99454567    -0.99454567    -0.013672759  
       620   0             -0.9968714     -0.9968714     -0.013625408  
       630   0             -0.99857917    -0.99857917    -0.013940392  
       640   0             -1.0001954     -1.0001954     -0.013896086  
       650   0             -1.0027369     -1.0027369     -0.013984654  
       660   0             -1.0051702     -1.0051702     -0.014179287  
       670   0             -1.0088166     -1.0088166     -0.014193368  
       680   0             -1.0103804     -1.0103804     -0.013862173  
       690   0             -1.0124805     -1.0124805     -0.013596245  
       700   0             -1.0144426     -1.0144426     -0.013637879  
       710   0             -1.0160945     -1.0160945     -0.013425584  
       720   0             -1.0181342     -1.0181342     -0.01347673   
       730   0             -1.0212284     -1.0212284     -0.013237478  
       740   0             -1.0246245     -1.0246245     -0.01284249   
       750   0             -1.0274923     -1.0274923     -0.012948877  
       760   0             -1.0303037     -1.0303037     -0.012557727  
       770   0             -1.0326488     -1.0326488     -0.012253435  
       780   0             -1.0352073     -1.0352073     -0.012597189  
       790   0             -1.0375772     -1.0375772     -0.012812282  
       800   0             -1.0394087     -1.0394087     -0.012803058  
       810   0             -1.0404503     -1.0404503     -0.0126501    
       820   0             -1.0405493     -1.0405493     -0.012632146  
       830   0             -1.0417788     -1.0417788     -0.012486561  
       840   0             -1.0419876     -1.0419876     -0.012508182  
       850   0             -1.0420691     -1.0420691     -0.012504415  
       860   0             -1.0442294     -1.0442294     -0.012290308  
       870   0             -1.0459513     -1.0459513     -0.012538214  
       880   0             -1.0466818     -1.0466818     -0.012379983  
       890   0             -1.0479815     -1.0479815     -0.012407165  
       900   0             -1.0498441     -1.0498441     -0.012093734  
       910   0             -1.0513972     -1.0513972     -0.012237482  
       920   0             -1.0534535     -1.0534535     -0.012235396  
       930   0             -1.054574      -1.054574      -0.012446927  
       940   0             -1.0555957     -1.0555957     -0.012441028  
       950   0             -1.0577338     -1.0577338     -0.01276274   
       960   0             -1.058738      -1.058738      -0.012837514  
       970   0             -1.0610558     -1.0610558     -0.01259037   
       980   0             -1.0639859     -1.0639859     -0.011851881  
       990   0             -1.0659119     -1.0659119     -0.011507466  
      1000   0             -1.0681999     -1.0681999     -0.012154745  
Loop time of 19.4671 on 12 procs for 1000 steps with 10000 atoms

114.0% CPU use with 1 MPI tasks x 12 OpenMP threads

Minimization stats:
  Stopping criterion = max iterations
  Energy initial, next-to-last, final = 
    3.07604738683898e+17  -1.06812483793873  -1.06819986769847
  Force two-norm initial, final = 2.8629962e+24 15.747985
  Force max component initial, final = 1.9807756e+24 4.258187
  Final line search alpha, max atom move = 0.023068154 0.098228512
  Iterations, force evaluations = 1000 1958

MPI task timing breakdown:
Section |  min time  |  avg time  |  max time  |%varavg| %total
---------------------------------------------------------------
Pair    | 18.786     | 18.786     | 18.786     |   0.0 | 96.50
Neigh   | 0.051357   | 0.051357   | 0.051357   |   0.0 |  0.26
Comm    | 0.054783   | 0.054783   | 0.054783   |   0.0 |  0.28
Output  | 0.18744    | 0.18744    | 0.18744    |   0.0 |  0.96
Modify  | 0          | 0          | 0          |   0.0 |  0.00
Other   |            | 0.3876     |            |       |  1.99

Nlocal:          10000 ave       10000 max       10000 min
Histogram: 1 0 0 0 0 0 0 0 0 0
Nghost:            679 ave         679 max         679 min
Histogram: 1 0 0 0 0 0 0 0 0 0
Neighs:          39331 ave       39331 max       39331 min
Histogram: 1 0 0 0 0 0 0 0 0 0

Total # of neighbors = 39331
Ave neighs/atom = 3.9331
Neighbor list builds = 31
Dangerous builds = 0

timestep 0.005

fix mynve all nve/asphere
run 10000
Generated 0 of 0 mixed pair_coeff terms from geometric mixing rule
Per MPI rank memory allocation (min/avg/max) = 23.66 | 23.66 | 23.66 Mbytes
   Step          Temp          E_pair         TotEng         Press     
      1000   0             -1.0681999     -1.0681999     -0.012154745  
      1010   7.4829001e-05 -1.0736678     -1.073593      -0.01722461   
      1020   0.0014753003  -1.0844183     -1.0829432     -0.019002128  
      1030   0.0061965382  -1.0979671     -1.0917712     -0.011682802  
      1040   0.013527643   -1.1144745     -1.1009482      0.00098719151
      1050   0.022712492   -1.1336544     -1.1109442      0.0069585331 
      1060   0.033544385   -1.1545075     -1.1209665      0.00027944184
      1070   0.045011556   -1.1750805     -1.1300734     -0.0095801215 
      1080   0.055873524   -1.1936139     -1.137746      -0.017515304  
      1090   0.065871947   -1.2094761     -1.1436107     -0.024175559  
      1100   0.074366788   -1.2226572     -1.1482978     -0.028540195  
      1110   0.082469481   -1.2347525     -1.1522912     -0.031964159  
      1120   0.091053534   -1.2454954     -1.154451      -0.03166747   
      1130   0.098184061   -1.2548073     -1.156633      -0.025681455  
      1140   0.10583465    -1.2634986     -1.1576745     -0.019615802  
      1150   0.11181736    -1.2715922     -1.159786      -0.017428371  
      1160   0.11853911    -1.2803838     -1.1618565     -0.016055792  
      1170   0.12497259    -1.2901812     -1.1652211     -0.017375208  
      1180   0.13049391    -1.2981203     -1.1676395     -0.01267256   
      1190   0.13476824    -1.3049783     -1.1702235     -0.00578521   
      1200   0.14104082    -1.3133672     -1.1723404     -0.0076641449 
      1210   0.1469175     -1.3205577     -1.1736549     -0.0068484003 
      1220   0.15124653    -1.3261822     -1.1749508     -0.0055032212 
      1230   0.15477233    -1.3310321     -1.1762753     -0.0067167444 
      1240   0.15937128    -1.3378817     -1.1785263     -0.012151079  
      1250   0.16383123    -1.3423276     -1.1785128     -0.0067181627 
      1260   0.16697718    -1.347391      -1.1804305     -0.0039281042 
      1270   0.17057093    -1.3532229     -1.1826691     -0.0095072642 
      1280   0.17423391    -1.3584315     -1.184215      -0.011372932  
      1290   0.17839529    -1.3631433     -1.1847658     -0.0021208211 
      1300   0.18276982    -1.371001      -1.1882494     -0.0072695652 
      1310   0.18445951    -1.3735882     -1.1891471      0.00077699314
      1320   0.18960407    -1.3791626     -1.1895775     -0.0036322694 
      1330   0.19307624    -1.3845333     -1.1914764     -0.011882796  
      1340   0.19390611    -1.3860081     -1.1921213     -0.0085973979 
      1350   0.19694174    -1.3888728     -1.1919507     -0.0074804893 
      1360   0.20114116    -1.3942879     -1.1931669     -0.011538725  
      1370   0.20290444    -1.3957808     -1.1928966     -0.0099039747 
      1380   0.20441922    -1.3989596     -1.1945608     -0.0097964751 
      1390   0.20958       -1.4035516     -1.1939926     -0.0092243627 
      1400   0.2120234     -1.4073992     -1.195397      -0.006550624  
      1410   0.2148101     -1.4114615     -1.1966729     -0.0043482064 
      1420   0.21377063    -1.4142563     -1.2005071     -0.0014716061 
      1430   0.21643185    -1.4168264     -1.2004162      0.00061913936
      1440   0.21995002    -1.4221977     -1.2022697     -0.0077691388 
      1450   0.2225791     -1.4268402     -1.2042833     -0.016188672  
      1460   0.2222692     -1.4296297     -1.2073828     -0.010909905  
      1470   0.22464483    -1.4322989     -1.2076765     -0.0059881882 
      1480   0.22630258    -1.434019      -1.207739      -0.0040710215 
      1490   0.22555755    -1.4347282     -1.2091932     -0.0015325001 
      1500   0.22979372    -1.4385757     -1.2088049     -0.0054226178 
      1510   0.23420982    -1.4418691     -1.2076827     -0.0070622655 
      1520   0.236211      -1.4457549     -1.2095675     -0.0095579189 
      1530   0.23812244    -1.4482598     -1.2101612     -0.0059881321 
      1540   0.23965653    -1.4513324     -1.2116998     -0.00083516602
      1550   0.24124695    -1.4543529     -1.2131301     -0.0039302553 
      1560   0.24180278    -1.4549892     -1.2132106      0.00036550589
      1570   0.24356528    -1.4605242     -1.2169833     -0.0033581804 
      1580   0.24724703    -1.4623433     -1.215121      -0.0010001968 
      1590   0.25066097    -1.4623721     -1.2117362      0.0050977529 
      1600   0.25195237    -1.4674894     -1.2155622     -0.0043042561 
      1610   0.25222429    -1.4691134     -1.2169144     -0.0078162417 
      1620   0.25344925    -1.471032      -1.2176081     -0.0098215218 
      1630   0.25417579    -1.4739236     -1.2197732     -0.011808392  
      1640   0.25609192    -1.4754452     -1.2193789     -0.0077595128 
      1650   0.26060198    -1.4787031     -1.2181272     -0.0037033173 
      1660   0.2611232     -1.4791002     -1.2180031      0.0046599991 
      1670   0.2606801     -1.4826834     -1.2220294     -0.0033272255 
      1680   0.26105067    -1.4836223     -1.2225978     -0.005920301  
      1690   0.26251315    -1.48509       -1.2226031     -0.005999967  
      1700   0.26747998    -1.4891821     -1.2217289      0.0011428801 
      1710   0.26675379    -1.4895078     -1.2227806      0.0098017305 
      1720   0.26824786    -1.4929042     -1.2246831      0.006436035  
      1730   0.26984185    -1.4968302     -1.2270153     -0.0052905454 
      1740   0.27034858    -1.4968464     -1.2265249     -0.0043681621 
      1750   0.27002186    -1.4992021     -1.2292073     -0.0053465092 
      1760   0.27567209    -1.5028565     -1.2272119     -0.011388803  
      1770   0.27515271    -1.5027322     -1.227607      -0.0041532496 
      1780   0.27671258    -1.5036049     -1.22692        0.0073899791 
      1790   0.27910968    -1.507183      -1.2281012      0.0035949737 
      1800   0.27956394    -1.5089755     -1.2294395      0.0024894334 
      1810   0.28412854    -1.5117016     -1.2276015     -0.0040036848 
      1820   0.28499385    -1.5118163     -1.2268509     -0.0023324103 
      1830   0.28337379    -1.5120801     -1.2287347      0.0023235689 
      1840   0.28713623    -1.5168092     -1.2297017     -0.0032233919 
      1850   0.28839453    -1.5177092     -1.2293436     -0.0022874615 
      1860   0.28932011    -1.5196815     -1.2303904     -0.0081102662 
      1870   0.28839816    -1.5176256     -1.2292563     -0.0049948479 
      1880   0.29053239    -1.5209617     -1.2304583     -0.0022101735 
      1890   0.2910339     -1.5218621     -1.2308573     -0.0014439408 
      1900   0.28890249    -1.5228643     -1.2339907      0.0021851364 
      1910   0.2932554     -1.5294721     -1.2362461     -0.00085049493
      1920   0.29276336    -1.5299444     -1.2372103      0.010508787  
      1930   0.29504191    -1.5324234     -1.237411       0.0009083552 
      1940   0.29427041    -1.5333095     -1.2390685      0.0043525578 
      1950   0.293418      -1.5318102     -1.2384215      0.0062281319 
      1960   0.29891996    -1.5331259     -1.2342358     -0.0025767434 
      1970   0.29785481    -1.5298635     -1.2320384      0.0071545609 
      1980   0.29655983    -1.5321763     -1.2356461      0.0045651766 
      1990   0.29418752    -1.5312177     -1.2370596      0.011016912  
      2000   0.29991439    -1.5350239     -1.2351395      0.0017656975 
      2010   0.29902141    -1.5341333     -1.2351418      0.0022763481 
      2020   0.30056792    -1.5366319     -1.2360941     -0.0083547247 
      2030   0.29703795    -1.5357052     -1.238697      -0.0064095069 
      2040   0.29983478    -1.5363403     -1.2365355      3.1934446e-05
      2050   0.30479386    -1.5390231     -1.2342597      0.0033159474 
      2060   0.30204662    -1.5393293     -1.2373129      0.011149829  
      2070   0.30511396    -1.5445794     -1.2394959     -0.0011638466 
      2080   0.30530019    -1.544063      -1.2387933      0.0074247134 
      2090   0.30476203    -1.5420232     -1.2372917      0.017188715  
      2100   0.3064528     -1.5507468     -1.2443246      0.0019728947 
      2110   0.31045356    -1.5514468     -1.2410243     -0.0019773568 
      2120   0.31297532    -1.5514255     -1.2384815      0.0049899728 
      2130   0.3131345     -1.5529311     -1.2398279      0.0052496392 
      2140   0.31357208    -1.5552822     -1.2417415      0.0023843617 
      2150   0.31241612    -1.5536226     -1.2412377      0.011517712  
      2160   0.31536189    -1.5568832     -1.2415528      0.0065570802 
      2170   0.31917111    -1.560146      -1.2410068      0.0063165387 
      2180   0.32219582    -1.5622799     -1.2401163      0.0041975959 
      2190   0.32159302    -1.5639543     -1.2423934      0.0083360693 
      2200   0.31746698    -1.5648582     -1.247423       0.0053842401 
      2210   0.31839494    -1.565068      -1.2467049     -0.0017984361 
      2220   0.32306879    -1.5669582     -1.2439217     -0.0036095    
      2230   0.32344335    -1.5693983     -1.2459873      0.0020820499 
      2240   0.32228152    -1.5720343     -1.249785       0.0053127917 
      2250   0.3217206     -1.5685311     -1.2468427      0.010972527  
      2260   0.32451706    -1.5691324     -1.2446478      0.017379891  
      2270   0.32633168    -1.5712292     -1.2449302      0.011509903  
      2280   0.32644705    -1.5729049     -1.2464905      0.0028873925 
      2290   0.32574769    -1.573829      -1.2481138      0.0022791738 
      2300   0.32814877    -1.5735471     -1.2454311      0.0065632883 
      2310   0.32645735    -1.5746183     -1.2481936      0.0080830601 
      2320   0.32596087    -1.5757842     -1.2498559      0.0017763044 
      2330   0.32735067    -1.5746299     -1.247312      -0.0017823549 
      2340   0.32784346    -1.5755336     -1.2477229      0.00037489815
      2350   0.32514687    -1.5733628     -1.2482484      0.01063384   
      2360   0.32685015    -1.5771307     -1.2503132      0.010543205  
      2370   0.32812279    -1.57862       -1.25053        0.015988529  
      2380   0.32779698    -1.5797104     -1.2519462      0.0082350856 
      2390   0.32843187    -1.580236      -1.251837       0.0050390325 
      2400   0.33105624    -1.5834593     -1.2524362      9.1274211e-05
      2410   0.32944691    -1.576965      -1.247551       0.017938611  
      2420   0.33115143    -1.5789407     -1.2478224      0.0070183645 
      2430   0.32831953    -1.5748348     -1.2465481      0.0081785467 
      2440   0.32793696    -1.5789206     -1.2510164     -0.010571971  
      2450   0.32702875    -1.5764556     -1.2494595     -0.0073570324 
      2460   0.32917469    -1.5781219     -1.2489801     -0.00045022977
      2470   0.3317406     -1.5792729     -1.2475655      0.0095553217 
      2480   0.33138326    -1.5814481     -1.250098       0.0053464035 
      2490   0.33288791    -1.5823922     -1.2495376      0.0047311721 
      2500   0.33211143    -1.5847888     -1.2527105      0.0022907306 
      2510   0.33460992    -1.5828732     -1.2482967      0.0036662312 
      2520   0.33549942    -1.5800842     -1.2446184      0.014394032  
      2530   0.33402053    -1.5841264     -1.2501393     -0.0031189676 
      2540   0.33266023    -1.5801603     -1.2475333      0.0024721915 
      2550   0.33367576    -1.5834339     -1.2497915     -0.0062703754 
      2560   0.33347495    -1.5845941     -1.2511525     -0.0060163296 
      2570   0.33460494    -1.5862397     -1.2516682      0.0012207491 
      2580   0.33621309    -1.5889995     -1.25282        0.010359012  
      2590   0.33620715    -1.5919989     -1.2558253      0.012929065  
      2600   0.33814641    -1.5915791     -1.2534665      0.013310058  
      2610   0.33630696    -1.5896563     -1.2533829      0.014698741  
      2620   0.33686766    -1.5879566     -1.2511226      0.013559025  
      2630   0.33428186    -1.5895116     -1.2552632      0.008186452  
      2640   0.33537358    -1.5896044     -1.2542644      0.0030272329 
      2650   0.33671602    -1.5871964     -1.2505141      0.014865967  
      2660   0.33914042    -1.5890932     -1.2499867      0.0052491656 
      2670   0.34035039    -1.5898158     -1.2494994      0.0014787535 
      2680   0.33775402    -1.5894467     -1.2517265      0.0016766153 
      2690   0.34210772    -1.5924744     -1.2504008      0.006063523  
      2700   0.34286303    -1.5964759     -1.2536472      0.00098467748
      2710   0.3442302     -1.5933096     -1.2491138      0.010842142  
      2720   0.34146482    -1.5945273     -1.2530966      0.01341444   
      2730   0.34216954    -1.5965456     -1.2544103      0.011280279  
      2740   0.33966205    -1.5957753     -1.2561472      0.0065547185 
      2750   0.3405402     -1.5974266     -1.2569204      0.00086846541
      2760   0.33603604    -1.5933882     -1.2573857      0.007666804  
      2770   0.33996512    -1.5948011     -1.25487        0.00047453241
      2780   0.34119637    -1.5926722     -1.25151        0.0042368267 
      2790   0.34584007    -1.5966426     -1.2508371     -7.7952222e-05
      2800   0.34463048    -1.5958435     -1.2512475      0.015633915  
      2810   0.34271799    -1.597687      -1.2550032      0.012632299  
      2820   0.34155466    -1.5955305     -1.25401        0.003814275  
      2830   0.34126756    -1.5933042     -1.2520708      0.0040129866 
      2840   0.34236762    -1.5956777     -1.2533443      0.0063480517 
      2850   0.34036671    -1.5948124     -1.2544797      0.0042047917 
      2860   0.34204837    -1.5963484     -1.2543343      0.00080094264
      2870   0.3427025     -1.5995541     -1.2568858      0.0046377522 
      2880   0.34382126    -1.6020892     -1.2583023      0.011405832  
      2890   0.34510967    -1.599331      -1.2542558      0.023157783  
      2900   0.34498153    -1.6022977     -1.2573507      0.013112128  
      2910   0.34417624    -1.6003151     -1.2561733      0.0068048758 
      2920   0.34436592    -1.5984389     -1.2541074      0.0018825641 
      2930   0.34617812    -1.6010792     -1.2549357     -0.0032982985 
      2940   0.34768028    -1.6003351     -1.2526896      0.0075367318 
      2950   0.34929672    -1.6048969     -1.2556351      0.0049225627 
      2960   0.34767206    -1.6038201     -1.2561828      0.012695618  
      2970   0.34822042    -1.6073646     -1.259179       0.0089890649 
      2980   0.3511866     -1.6077393     -1.2565878      0.01172082   
      2990   0.35129031    -1.6043408     -1.2530856      0.013379776  
      3000   0.35169039    -1.6068778     -1.2552226      0.0062637051 
      3010   0.35135963    -1.6085541     -1.2572296      0.0050703118 
      3020   0.35455813    -1.612101      -1.2575783      0.00059468887
      3030   0.3504636     -1.6076233     -1.2571948      0.0098051465 
      3040   0.3542747     -1.6116515     -1.2574123      0.00023948961
      3050   0.35243347    -1.6103529     -1.2579546      0.010220157  
      3060   0.35387131    -1.6089235     -1.2550876      0.016894354  
      3070   0.35501223    -1.6095433     -1.2545666      0.010236982  
      3080   0.35716843    -1.6137175     -1.2565848      0.0014100636 
      3090   0.35602402    -1.6123863     -1.2563978      0.004921416  
      3100   0.35455283    -1.6076132     -1.2530959      0.01059641   
      3110   0.35305478    -1.6038645     -1.250845       0.0026688587 
      3120   0.35321181    -1.606096      -1.2529195     -0.01002863   
      3130   0.35531084    -1.6084977     -1.2532224     -0.0035142019 
      3140   0.35395209    -1.607878      -1.2539613      0.014838461  
      3150   0.3568538     -1.6148031     -1.257985       0.0080750664 
      3160   0.35249314    -1.6114793     -1.2590214      0.017685947  
      3170   0.35256891    -1.6105409     -1.2580072      0.02722765   
      3180   0.35243122    -1.611445      -1.259049       0.011336422  
      3190   0.35259877    -1.6121407     -1.2595772      0.0058078476 
      3200   0.35125192    -1.612052      -1.2608352     -0.0005587364 
      3210   0.35130249    -1.6097243     -1.2584569      0.0053735574 
      3220   0.35557929    -1.6114895     -1.2559458      0.0057303515 
      3230   0.3553514     -1.611789      -1.2564731      0.013681586  
      3240   0.35555918    -1.613307      -1.2577834      0.0095068841 
      3250   0.35853244    -1.6169196     -1.258423       0.0051526178 
      3260   0.35874112    -1.6179346     -1.2592294     -0.0010360674 
      3270   0.35662896    -1.6163121     -1.2597188      0.0048884305 
      3280   0.35846948    -1.6167159     -1.2582823      0.011851481  
      3290   0.36034132    -1.6181267     -1.2578214      0.010168669  
      3300   0.36066792    -1.6197014     -1.2590695      0.004901766  
      3310   0.35941665    -1.6186184     -1.2592377      0.010445418  
      3320   0.36100505    -1.6206101     -1.2596411      0.0063090909 
      3330   0.36101037    -1.6216593     -1.260685       0.010117522  
      3340   0.36038788    -1.6228026     -1.2624507      0.013619687  
      3350   0.36125799    -1.6207708     -1.259549       0.013897837  
      3360   0.36019647    -1.6195821     -1.2594216      0.0069132025 
      3370   0.36275899    -1.6178867     -1.255164       0.011008131  
      3380   0.3605715     -1.6209465     -1.260411       0.0046839123 
      3390   0.36418103    -1.6255913     -1.2614467     -0.0042528816 
      3400   0.36405656    -1.6233251     -1.259305      -0.00043150736
      3410   0.36254568    -1.6229823     -1.2604728      0.0062397029 
      3420   0.36169638    -1.6231144     -1.2614542      0.013157662  
      3430   0.36288153    -1.6210966     -1.2582514      0.025545266  
      3440   0.36504977    -1.6252378     -1.2602246      0.011616707  
      3450   0.36721905    -1.6269795     -1.2597972      0.0043463975 
      3460   0.36670244    -1.6249567     -1.2582909      0.0042074396 
      3470   0.36298881    -1.6236216     -1.2606691     -0.0026370024 
      3480   0.3625502     -1.6289036     -1.2663897     -0.015810605  
      3490   0.36113556    -1.6231775     -1.262078       0.0084282002 
      3500   0.36790604    -1.6311982     -1.2633289      0.00045551168
      3510   0.36747517    -1.6287128     -1.2612744      0.016284218  
      3520   0.36831351    -1.6274366     -1.25916        0.020184916  
      3530   0.36651562    -1.6250549     -1.258576       0.017354361  
      3540   0.3695049     -1.628415      -1.2589471      0.0088193008 
      3550   0.37097171    -1.6259485     -1.2550139      0.011574616  
      3560   0.37097679    -1.6285088     -1.2575691      0.0090400785 
      3570   0.36787546    -1.6282183     -1.2603796      0.0097605793 
      3580   0.36198996    -1.623639      -1.2616852      0.015846732  
      3590   0.36492583    -1.6232739     -1.2583846      0.017273432  
      3600   0.3683354     -1.6283465     -1.2600479      0.010741193  
      3610   0.36901048    -1.6299565     -1.2609829      0.010669497  
      3620   0.3672316     -1.6239027     -1.2567078      0.028344188  
      3630   0.37202523    -1.6329227     -1.2609346      0.0061922308 
      3640   0.37596178    -1.6350011     -1.259077       0.0088951599 
      3650   0.37343254    -1.6315184     -1.2581232      0.013941715  
      3660   0.37134784    -1.6300256     -1.2587149      0.012037592  
      3670   0.37053167    -1.6355342     -1.2650396      0.00060488704
      3680   0.36570711    -1.628051      -1.2623805      0.0096866511 
      3690   0.36759678    -1.6317649     -1.2642049     -0.010269437  
      3700   0.37033024    -1.6262887     -1.2559955      0.00025822066
      3710   0.37104181    -1.6291287     -1.258124      -0.0030833583 
      3720   0.37349317    -1.6351131     -1.2616573     -0.0063311369 
      3730   0.37145588    -1.6321524     -1.2607337      0.015676349  
      3740   0.37124815    -1.6313644     -1.2601534      0.01710849   
      3750   0.37295474    -1.6338773     -1.2609598      0.012862357  
      3760   0.3734492     -1.6389138     -1.2655019      0.012116192  
      3770   0.37518928    -1.6397282     -1.2645764      0.018196438  
      3780   0.37489861    -1.6394158     -1.2645547      0.021649375  
      3790   0.37329162    -1.6353464     -1.2620921      0.030380004  
      3800   0.37366766    -1.6385908     -1.2649606      0.017283944  
      3810   0.37343524    -1.635676      -1.2622781      0.018047203  
      3820   0.3741924     -1.6364574     -1.2623024      0.0058377019 
      3830   0.37170607    -1.6343137     -1.2626448     -0.00038302003
      3840   0.36788251    -1.6311509     -1.2633052      0.0033012935 
      3850   0.37228704    -1.6344199     -1.2621701      0.004676582  
      3860   0.37119178    -1.6334548     -1.2623001      0.016453585  
      3870   0.37079293    -1.6341676     -1.2634117      0.015284057  
      3880   0.37742369    -1.6405615     -1.2631755      0.0044297489 
      3890   0.3763524     -1.6364768     -1.260162       0.010552326  
      3900   0.37405061    -1.6354649     -1.2614517      0.0037529256 
      3910   0.37514138    -1.6360505     -1.2609466      0.0098540975 
      3920   0.37404983    -1.6362826     -1.2622702      0.0098345434 
      3930   0.37434778    -1.6377133     -1.2634029      0.0031785355 
      3940   0.37574157    -1.6373513     -1.2616473      0.014628281  
      3950   0.37578778    -1.6392942     -1.263544       0.0092947254 
      3960   0.37500146    -1.6392188     -1.2642549      0.001401597  
      3970   0.37351684    -1.6378426     -1.2643631      0.0050714221 
      3980   0.37520675    -1.6384944     -1.2633252      0.0097612078 
      3990   0.37610672    -1.6390602     -1.2629911      0.012271746  
      4000   0.38266133    -1.6427806     -1.2601576      0.010364967  
      4010   0.38365646    -1.6427217     -1.2591036      0.01434863   
      4020   0.38102105    -1.6464213     -1.2654383     -0.0014688559 
      4030   0.3779756     -1.6427007     -1.2647629      0.0084288955 
      4040   0.37918313    -1.6445282     -1.2653829      0.0049249459 
      4050   0.38377179    -1.6440603     -1.2603268      0.010189523  
      4060   0.38472144    -1.6461178     -1.2614348      0.006602104  
      4070   0.38050906    -1.6445017     -1.2640307      0.019835919  
      4080   0.38150491    -1.6492673     -1.2678006      0.0091057928 
      4090   0.37791992    -1.6441053     -1.2662232      0.017685997  
      4100   0.38129091    -1.6479188     -1.266666       0.012999189  
      4110   0.37712117    -1.6459158     -1.2688323      0.015777404  
      4120   0.37750496    -1.6467212     -1.2692539      0.010381404  
      4130   0.38044982    -1.6453874     -1.2649756      0.0046429056 
      4140   0.3776374     -1.6386179     -1.2610183      0.019087089  
      4150   0.38110391    -1.6448121     -1.2637463      0.0094121213 
      4160   0.37948743    -1.6411397     -1.2616902      0.01772439   
      4170   0.38118256    -1.6433907     -1.2622462      0.012387323  
      4180   0.38130457    -1.6452091     -1.2639426      0.0079571018 
      4190   0.37843556    -1.6432149     -1.2648172      0.0097280624 
      4200   0.37592206    -1.6464218     -1.2705374     -0.0017285675 
      4210   0.37775513    -1.6416657     -1.2639484      0.016031631  
      4220   0.38161855    -1.6447318     -1.2631514      0.011143463  
      4230   0.37782596    -1.6400796     -1.2622914      0.011461747  
      4240   0.37243599    -1.6350994     -1.2627007      0.011941269  
      4250   0.3727945     -1.6397001     -1.2669428      0.0063550482 
      4260   0.37523746    -1.6430535     -1.2678536      0.006508736  
      4270   0.37507026    -1.6390383     -1.2640055      0.011308663  
      4280   0.37288426    -1.6404816     -1.2676346      0.010381303  
      4290   0.37632374    -1.6432063     -1.2669202      0.0093755913 
      4300   0.37225017    -1.6446956     -1.2724827      0.0086411259 
      4310   0.37471362    -1.6420226     -1.2673464      0.015959908  
      4320   0.37814734    -1.6422309     -1.2641213      0.0061251294 
      4330   0.37553205    -1.6393892     -1.2638947      0.0080392851 
      4340   0.37563241    -1.6434074     -1.2678126      0.0040595783 
      4350   0.37342954    -1.6430672     -1.269675       0.012058612  
      4360   0.37690547    -1.6440246     -1.2671568      0.016864077  
      4370   0.37777627    -1.6451947     -1.2674562      0.016384438  
      4380   0.37957477    -1.6477941     -1.2682573      0.011004842  
      4390   0.38003019    -1.6467289     -1.2667368      0.018912712  
      4400   0.37918416    -1.6459118     -1.2667656      0.020803679  
      4410   0.38224036    -1.648473      -1.2662708      0.010875533  
      4420   0.38292925    -1.6484857     -1.2655947      0.0077606515 
      4430   0.38002874    -1.6462632     -1.2662725     -0.0001801355 
      4440   0.377263      -1.6445774     -1.2673521      0.0041412161 
      4450   0.37801319    -1.6432625     -1.2652871      0.0077140308 
      4460   0.37649164    -1.6441461     -1.2676921      0.0016709588 
      4470   0.37899006    -1.6478497     -1.2688975     -0.0063003127 
      4480   0.3800467     -1.6450453     -1.2650366      0.0088081719 
      4490   0.38215706    -1.6493657     -1.2672469      0.010601049  
      4500   0.38150785    -1.6480582     -1.2665885      0.019340751  
      4510   0.38215086    -1.6498924     -1.2677798      0.020766411  
      4520   0.38354643    -1.6515144     -1.2680063      0.018457626  
      4530   0.38411311    -1.651851      -1.2677763      0.015520008  
      4540   0.38042145    -1.6490534     -1.26867        0.016759237  
      4550   0.38106438    -1.6491811     -1.2681548      0.019795012  
      4560   0.37794065    -1.6472234     -1.2693205      0.02047262   
      4570   0.38143382    -1.6483978     -1.2670021      0.011027603  
      4580   0.38174731    -1.6470096     -1.2653005      0.0069292647 
      4590   0.38072643    -1.6463325     -1.2656441      0.010105277  
      4600   0.38364166    -1.6487911     -1.2651878      0.0033849848 
      4610   0.3823851     -1.6499649     -1.2676181      0.0066967025 
      4620   0.38204467    -1.647599      -1.2655925      0.024033366  
      4630   0.38356222    -1.6495918     -1.2660679      0.021578079  
      4640   0.37952613    -1.6491378     -1.2696497      0.020986178  
      4650   0.38029115    -1.648029      -1.2677759      0.013774838  
      4660   0.38299341    -1.6495654     -1.2666102      0.0076322094 
      4670   0.38000184    -1.6466029     -1.266639       0.012656622  
      4680   0.38136229    -1.6502709     -1.2689467      0.0035606105 
      4690   0.38055778    -1.6517103     -1.2711906      0.0039503766 
      4700   0.38031044    -1.6477715     -1.2674991      0.017524075  
      4710   0.38533789    -1.6479642     -1.2626648      0.010771615  
      4720   0.38297525    -1.6505075     -1.2675705     -0.00090261556
      4730   0.38263748    -1.6473718     -1.2647726      0.016254275  
      4740   0.38438819    -1.6550775     -1.2707278      0.012459453  
      4750   0.38259503    -1.6500415     -1.2674848      0.033059179  
      4760   0.38651856    -1.6529697     -1.2664898      0.023447034  
      4770   0.38704828    -1.6549243     -1.2679148      0.024961826  
      4780   0.38343758    -1.6556218     -1.2722226      0.018569585  
      4790   0.37883057    -1.6512071     -1.2724144      0.02526936   
      4800   0.38253832    -1.6577105     -1.2752105      0.0017955568 
      4810   0.38313759    -1.6519378     -1.2688385      0.012564667  
      4820   0.38162049    -1.6518867     -1.2703044      0.0093535886 
      4830   0.37949621    -1.6496352     -1.2701769      0.0080165341 
      4840   0.38111315    -1.6508615     -1.2697865      0.00072595828
      4850   0.38091604    -1.6491459     -1.2682679     -0.00042850526
      4860   0.38065373    -1.6470317     -1.2664161      0.011032303  
      4870   0.38060255    -1.6498491     -1.2692846      0.013921755  
      4880   0.3810898     -1.6505294     -1.2694777      0.018504422  
      4890   0.38355956    -1.6502636     -1.2667424      0.018777719  
      4900   0.3840232     -1.6508508     -1.266866       0.015703565  
      4910   0.38383059    -1.6511766     -1.2673844      0.005607754  
      4920   0.37988832    -1.6473246     -1.2674743      0.0026582755 
      4930   0.38127624    -1.6467987     -1.2655606      0.0024170802 
      4940   0.38044823    -1.6477172     -1.267307       0.0071148269 
      4950   0.38381934    -1.6556441     -1.2718631     -0.0013697279 
      4960   0.37928778    -1.6502005     -1.2709507      0.014900941  
      4970   0.37786771    -1.6514742     -1.2736443      0.010262253  
      4980   0.37835808    -1.6500238     -1.2717035      0.0098410897 
      4990   0.37970584    -1.649131      -1.2694631      0.012058529  
      5000   0.38415461    -1.6498008     -1.2656846      0.012796742  
      5010   0.38456866    -1.6480549     -1.2635247      0.015407454  
      5020   0.38287995    -1.6483529     -1.2655112      0.0078347851 
      5030   0.38048119    -1.6458306     -1.2653874      0.0070832432 
      5040   0.3776068     -1.6444406     -1.2668716      0.0055040675 
      5050   0.38420797    -1.646945      -1.2627754     -0.0019697257 
      5060   0.38182619    -1.6459202     -1.2641322      0.0062588601 
      5070   0.38028428    -1.65067       -1.2704237      0.0060585644 
      5080   0.38048368    -1.6500245     -1.2695789      0.0096182817 
      5090   0.38153012    -1.6494818     -1.2679898      0.012654526  
      5100   0.38110878    -1.6519915     -1.2709208      0.013092709  
      5110   0.38205122    -1.6499779     -1.2679648      0.0094217298 
      5120   0.38258104    -1.649493      -1.2669502      0.0069424845 
      5130   0.38348353    -1.6503973     -1.2669521      0.0094309251 
      5140   0.38193357    -1.6510189     -1.2691236      0.011788956  
      5150   0.38177448    -1.6516552     -1.2699189      0.0074796984 
      5160   0.3874067     -1.6528127     -1.2654447      0.0059068761 
      5170   0.3845188     -1.6548635     -1.2703832     -0.001138213  
      5180   0.38385455    -1.6576052     -1.273789       0.010291426  
      5190   0.38252566    -1.6548174     -1.27233        0.026597315  
      5200   0.38898405    -1.6578156     -1.2688704      0.018087631  
      5210   0.38557485    -1.6549609     -1.2694246      0.012513586  
      5220   0.38417451    -1.659435      -1.275299       0.0037452764 
      5230   0.38281066    -1.6580516     -1.2752792      0.015156249  
      5240   0.38387531    -1.6575939     -1.273757       0.012991486  
      5250   0.38229092    -1.6540705     -1.2718178      0.013855086  
      5260   0.38291137    -1.6547619     -1.2718888      0.0060468954 
      5270   0.38241004    -1.6528199     -1.2704481      0.0069957652 
      5280   0.38360656    -1.6500183     -1.2664501      0.017092687  
      5290   0.38249851    -1.6509965     -1.2685362      0.020951419  
      5300   0.38475925    -1.656489      -1.2717682     -0.00086972475
      5310   0.38567245    -1.6557371     -1.2701032     -0.0023258389 
      5320   0.38627095    -1.6577329     -1.2715006      0.0023870162 
      5330   0.38403389    -1.6583568     -1.2743613      0.012241038  
      5340   0.3860577     -1.6586103     -1.2725912      0.013070773  
      5350   0.3863769     -1.6570915     -1.2707532      0.017383211  
      5360   0.38726717    -1.6616922     -1.2744638      0.0028724233 
      5370   0.38918129    -1.6612416     -1.2720992     -0.0010370438 
      5380   0.38562265    -1.6567522     -1.2711681      0.0090438323 
      5390   0.38806136    -1.6600287     -1.2720061      0.007357546  
      5400   0.39092249    -1.6618099     -1.2709265      0.011328423  
      5410   0.3922612     -1.6654339     -1.2732119     -0.00071133009
      5420   0.39150743    -1.6598528     -1.2683846      0.018510559  
      5430   0.39379815    -1.6642434     -1.2704847      0.013091593  
      5440   0.39116933    -1.663902      -1.2727718      0.023282481  
      5450   0.39309019    -1.6628892     -1.2698383      0.025924718  
      5460   0.39137587    -1.6669794     -1.2756426      0.014084014  
      5470   0.3944498     -1.6698756     -1.2754652      0.013795368  
      5480   0.39476557    -1.6671674     -1.2724413      0.02321181   
      5490   0.39264604    -1.6635268     -1.27092        0.026615684  
      5500   0.3947482     -1.6717324     -1.2770236      0.015591259  
      5510   0.39471207    -1.6715276     -1.276855       0.01945289   
      5520   0.39361006    -1.6669421     -1.2733714      0.021470489  
      5530   0.39526149    -1.6665146     -1.2712927      0.01629203   
      5540   0.39492197    -1.6696122     -1.2747297      0.010198955  
      5550   0.39068449    -1.6652462     -1.2746007      0.031597928  
      5560   0.39330356    -1.6701113     -1.276847       0.016130208  
      5570   0.39296692    -1.6717445     -1.2788169     -0.0010868732 
      5580   0.39380115    -1.6672293     -1.2734676      0.014965778  
      5590   0.39448586    -1.6676012     -1.2731548      0.012955435  
      5600   0.39282181    -1.6653582     -1.2725757      0.014844398  
      5610   0.39149146    -1.6643548     -1.2729025      0.011389176  
      5620   0.38967347    -1.6652947     -1.2756602      0.0061794067 
      5630   0.39076063    -1.6641041     -1.2733825      0.0063638944 
      5640   0.39527704    -1.6636515     -1.268414       0.015168128  
      5650   0.39059642    -1.6669986     -1.2764413      0.013581673  
      5660   0.39240791    -1.6691367     -1.276768       0.014783468  
      5670   0.39306794    -1.666577      -1.2735484      0.022282981  
      5680   0.39623093    -1.666984      -1.2707927      0.017945414  
      5690   0.39594093    -1.6691602     -1.2732588      0.0088901326 
      5700   0.39515256    -1.6670877     -1.2719746      0.013918524  
      5710   0.39500174    -1.6666801     -1.2717179      0.019398101  
      5720   0.39676529    -1.6647391     -1.2680134      0.023634823  
      5730   0.39375258    -1.6651242     -1.271411       0.016137181  
      5740   0.38876571    -1.6673719     -1.2786451      0.0066333147 
      5750   0.3908676     -1.662581      -1.2717525      0.01280278   
      5760   0.39202796    -1.6615616     -1.2695728      0.018496611  
      5770   0.3922349     -1.6651679     -1.2729723      0.0099701473 
      5780   0.39418831    -1.6665834     -1.2724345      0.0056444039 
      5790   0.39507526    -1.6674691     -1.2724334      0.0075925976 
      5800   0.39182491    -1.6633931     -1.2716073      0.017607852  
      5810   0.39337348    -1.6675401     -1.274206       0.0076387424 
      5820   0.39366137    -1.6635735     -1.2699515      0.0082015509 
      5830   0.39047194    -1.660544      -1.2701111      0.0044154198 
      5840   0.38828993    -1.6640308     -1.2757797     -0.0057589304 
      5850   0.39012657    -1.6619181     -1.2718305      0.0072749298 
      5860   0.39127822    -1.6656468     -1.2744077      0.0094965096 
      5870   0.3897758     -1.66351       -1.2737732      0.026694925  
      5880   0.39246996    -1.6709191     -1.2784884      0.0046173513 
      5890   0.39567971    -1.6681427     -1.2725025      0.0093138536 
      5900   0.39167276    -1.6672683     -1.2756347      0.0065998645 
      5910   0.39177454    -1.6690798     -1.2773444      0.013377635  
      5920   0.39156423    -1.6655841     -1.274059       0.015520857  
      5930   0.39487394    -1.6693674     -1.2745329     -0.00053622386
      5940   0.39260528    -1.6658994     -1.2733333      0.0098353997 
      5950   0.394533      -1.6651685     -1.2706749      0.0096442968 
      5960   0.39483359    -1.6658776     -1.2710835      0.010611094  
      5970   0.39729493    -1.6714979     -1.2742427      0.010860029  
      5980   0.39917898    -1.6710188     -1.2718798      0.017119552  
      5990   0.39692193    -1.669168      -1.2722858      0.027831112  
      6000   0.39683005    -1.669355      -1.2725647      0.027159268  
      6010   0.39635181    -1.6652415     -1.2689293      0.020061702  
      6020   0.39832022    -1.6660211     -1.2677407      0.0086606072 
      6030   0.39511982    -1.6650824     -1.2700021      0.0032830697 
      6040   0.3936388     -1.6667249     -1.2731254      0.0016034816 
      6050   0.39176513    -1.666874      -1.2751481      0.0019206872 
      6060   0.38966092    -1.6688944     -1.2792725      0.001913104  
      6070   0.39618599    -1.6698515     -1.2737051      0.016157986  
      6080   0.39717745    -1.672431      -1.2752933      0.014585117  
      6090   0.39481457    -1.6704614     -1.2756863      0.018576982  
      6100   0.39292479    -1.6712095     -1.278324       0.017960721  
      6110   0.39733526    -1.6753104     -1.2780148      0.0094620189 
      6120   0.39943386    -1.6759391     -1.2765452      0.013183087  
      6130   0.39921574    -1.6764208     -1.2772449      0.019143409  
      6140   0.39876312    -1.672771      -1.2740477      0.0247547    
      6150   0.39897444    -1.6764457     -1.2775111      0.017688675  
      6160   0.39950697    -1.6767362     -1.2772692      0.0086922247 
      6170   0.39496771    -1.6728178     -1.2778896      0.019346687  
      6180   0.39610923    -1.6731366     -1.277067       0.016017839  
      6190   0.39305187    -1.6669464     -1.2739338      0.028630436  
      6200   0.38959586    -1.6634078     -1.2738509      0.024166894  
      6210   0.39743169    -1.6700184     -1.2726265     -0.0007239425 
      6220   0.39562468    -1.6684501     -1.272865      -0.0060531841 
      6230   0.39300247    -1.6678327     -1.2748695     -0.00053534509
      6240   0.39583993    -1.6705508     -1.2747504      0.0071779974 
      6250   0.3992564     -1.6749194     -1.2757029      0.0096833039 
      6260   0.39716854    -1.6702836     -1.2731547      0.032202781  
      6270   0.39565395    -1.6714916     -1.2758772      0.024581434  
      6280   0.39595303    -1.6697437     -1.2738303      0.0098854416 
      6290   0.3896238     -1.6696591     -1.2800743     -0.0010613939 
      6300   0.38851927    -1.6648486     -1.2763681      0.012537441  
      6310   0.39371204    -1.6673959     -1.2737232      0.012444993  
      6320   0.39460957    -1.6699565     -1.2753864      0.0096635409 
      6330   0.39649842    -1.6663848     -1.269926       0.013655348  
      6340   0.39492466    -1.6637332     -1.268848       0.0065254067 
      6350   0.39408986    -1.6649347     -1.2708842      0.010003257  
      6360   0.39425287    -1.6672831     -1.2730697      0.016178576  
      6370   0.39443493    -1.6668783     -1.2724829      0.01280757   
      6380   0.38961427    -1.6658        -1.2762246      0.012251495  
      6390   0.39340473    -1.6697224     -1.276357       0.0068132236 
      6400   0.3948496     -1.6682728     -1.2734627      0.016751849  
      6410   0.39809088    -1.6711521     -1.273101       0.0095150429 
      6420   0.39756205    -1.6664494     -1.2689271      0.011378302  
      6430   0.39899407    -1.6672445     -1.2682903      0.0084055403 
      6440   0.39905299    -1.6688673     -1.2698542      0.010515532  
      6450   0.39862652    -1.6711389     -1.2725522      0.013448409  
      6460   0.3984488     -1.6674064     -1.2689975      0.017489286  
      6470   0.39553992    -1.6669484     -1.271448       0.014230726  
      6480   0.3948492     -1.6708981     -1.2760883      0.01366796   
      6490   0.39638997    -1.6713683     -1.275018       0.017055622  
      6500   0.39354286    -1.6703365     -1.276833       0.019981188  
      6510   0.38984732    -1.6666867     -1.2768783      0.027350362  
      6520   0.39162997    -1.6695247     -1.2779339      0.016074127  
      6530   0.39596976    -1.6696737     -1.2737436      0.011651438  
      6540   0.39314066    -1.6660451     -1.2729437      0.014069248  
      6550   0.3929118     -1.6680671     -1.2751946      0.011502645  
      6560   0.39424961    -1.6702545     -1.2760443     -0.0022107869 
      6570   0.39628721    -1.6671131     -1.2708655      0.01058442   
      6580   0.39586024    -1.6696163     -1.2737956      0.0076038673 
      6590   0.3937891     -1.6689467     -1.2751969      0.015363692  
      6600   0.39142062    -1.6639874     -1.2726059      0.03385372   
      6610   0.3931554     -1.6698609     -1.2767448      0.0066086945 
      6620   0.39599829    -1.6656914     -1.2697327      0.0047335015 
      6630   0.3968285     -1.6642985     -1.2675097     -0.00070459226
      6640   0.39804526    -1.6688186     -1.2708131     -0.010154168  
      6650   0.39475078    -1.6631961     -1.2684848      0.011369857  
      6660   0.39721164    -1.6694774     -1.2723055      0.0010134895 
      6670   0.39373673    -1.6674533     -1.2737559      0.0093772856 
      6680   0.39229291    -1.6669565     -1.2747028      0.01398842   
      6690   0.39519386    -1.6644816     -1.2693273      0.02873153   
      6700   0.39483995    -1.6680766     -1.2732761      0.02110544   
      6710   0.39844983    -1.6667252     -1.2683152      0.01160044   
      6720   0.39989922    -1.6681963     -1.268337      -0.0036776661 
      6730   0.39527299    -1.664401      -1.2691676      0.0030742897 
      6740   0.39656557    -1.6664107     -1.2698847      0.011733814  
      6750   0.39391441    -1.6652919     -1.2714169      0.022097085  
      6760   0.3954397     -1.6688676     -1.2734675      0.0058074396 
      6770   0.39386664    -1.6656988     -1.2718715      0.0095962394 
      6780   0.39676819    -1.671314      -1.2745855     -0.0021897289 
      6790   0.39791754    -1.6716796     -1.2738019     -0.0020398309 
      6800   0.3978732     -1.6691133     -1.2712799      0.0039036141 
      6810   0.39429804    -1.6636932     -1.2694346      0.022389177  
      6820   0.3952878     -1.6666982     -1.2714499      0.018557881  
      6830   0.39102062    -1.6690131     -1.2780316      0.014072131  
      6840   0.39079822    -1.6664401     -1.275681       0.022362513  
      6850   0.39518424    -1.6701525     -1.2750077      0.0099047936 
      6860   0.39264014    -1.6683909     -1.27579        0.0092885127 
      6870   0.39616415    -1.6688645     -1.27274        0.017603827  
      6880   0.40121086    -1.6763825     -1.2752117      0.012185415  
      6890   0.39756325    -1.6732833     -1.2757598      0.016701401  
      6900   0.39531913    -1.6703932     -1.2751136      0.015191086  
      6910   0.39743812    -1.6739061     -1.2765077      0.011772577  
      6920   0.39749653    -1.6735077     -1.2760509      0.011266464  
      6930   0.40010142    -1.6743041     -1.2742427      0.0075298541 
      6940   0.39807213    -1.6741052     -1.2760729      0.011993137  
      6950   0.39383042    -1.6700505     -1.2762594      0.025121248  
      6960   0.39520858    -1.6732081     -1.2780391      0.013000585  
      6970   0.39550565    -1.6702003     -1.2747342      0.02850897   
      6980   0.39463601    -1.6733704     -1.2787739      0.017414438  
      6990   0.39498463    -1.6702351     -1.27529        0.017421815  
      7000   0.39538007    -1.6710112     -1.2756706      0.019328144  
      7010   0.39442633    -1.6694126     -1.2750257      0.028639718  
      7020   0.39372108    -1.6672016     -1.2735199      0.030317643  
      7030   0.39921026    -1.6700472     -1.2708768      0.0076084005 
      7040   0.40023461    -1.6723778     -1.2721832     -0.0021652165 
      7050   0.39417776    -1.6673626     -1.2732243      0.002361587  
      7060   0.39541029    -1.6703269     -1.2749561     -0.007181912  
      7070   0.39678155    -1.6686013     -1.2718595      0.0039650919 
      7080   0.39986575    -1.6735272     -1.2737014      0.0013807371 
      7090   0.3986172     -1.6690886     -1.2705112      0.017378019  
      7100   0.39661953    -1.6706761     -1.2740963      0.018039254  
      7110   0.39411868    -1.6684839     -1.2744046      0.020176773  
      7120   0.39656942    -1.6713942     -1.2748644      0.0144477    
      7130   0.39739842    -1.672392      -1.2750333      0.017073968  
      7140   0.39802758    -1.6777624     -1.2797746      0.014762676  
      7150   0.39517011    -1.6745636     -1.279433       0.029700136  
      7160   0.39579973    -1.6761248     -1.2803646      0.026822311  
      7170   0.40024427    -1.6799732     -1.279769       0.019361695  
      7180   0.39927715    -1.6770006     -1.2777634      0.01938599   
      7190   0.40039092    -1.6746109     -1.27426        0.018765371  
      7200   0.40387206    -1.6798347     -1.276003       0.005863401  
      7210   0.40138268    -1.6781692     -1.2768267      0.0095090298 
      7220   0.39978278    -1.6759379     -1.2761951      0.012302107  
      7230   0.40002583    -1.6767124     -1.2767266      0.019483953  
      7240   0.40022102    -1.6786839     -1.2785029      0.024443318  
      7250   0.4043852     -1.6810073     -1.2766625      0.017831919  
      7260   0.40365492    -1.6759254     -1.2723109      0.016136624  
      7270   0.40354929    -1.674588      -1.2710791      0.018721608  
      7280   0.40256399    -1.6762558     -1.2737321      0.01752986   
      7290   0.39516001    -1.6740289     -1.2789084      0.020846305  
      7300   0.40027799    -1.6759206     -1.2756826      0.0080782572 
      7310   0.39933188    -1.6714482     -1.2721563      0.0080041458 
      7320   0.39815572    -1.6748492     -1.2767333      0.012436975  
      7330   0.39949446    -1.6750994     -1.2756449      0.01808748   
      7340   0.40111532    -1.6804655     -1.2793903      0.0078278276 
      7350   0.40218328    -1.6765255     -1.2743825      0.018780445  
      7360   0.40316513    -1.6780804     -1.2749556      0.016651851  
      7370   0.40521684    -1.6782768     -1.2731005      0.023334154  
      7380   0.40698296    -1.6851387     -1.2781965      0.012557372  
      7390   0.40646399    -1.6792412     -1.2728178      0.023434324  
      7400   0.40849477    -1.6855033     -1.2770494      0.0054792736 
      7410   0.40797993    -1.6806102     -1.2726711      0.014415733  
      7420   0.40205983    -1.6773072     -1.2752876      0.014880351  
      7430   0.40274356    -1.6805968     -1.2778935      0.002569079  
      7440   0.4037731     -1.6811608     -1.2774281      0.013195928  
      7450   0.40051644    -1.6802776     -1.2798012      0.023306603  
      7460   0.39730903    -1.6763424     -1.2790731      0.028725481  
      7470   0.40142975    -1.6814195     -1.2800299      0.0048889499 
      7480   0.39932864    -1.6743928     -1.2751041      0.011820214  
      7490   0.40203904    -1.6737306     -1.2717318      0.0051412039 
      7500   0.40328018    -1.6732014     -1.2699616      0.0063062086 
      7510   0.40254854    -1.6738537     -1.2713454      0.0096798127 
      7520   0.40139998    -1.6751635     -1.2738037      0.0075371682 
      7530   0.4003711     -1.6717715     -1.2714405      0.023237764  
      7540   0.40056146    -1.6764918     -1.2759704      0.011561477  
      7550   0.39743332    -1.6731158     -1.2757222      0.019517293  
      7560   0.40415606    -1.6788095     -1.2746938     -0.00074939996
      7570   0.40007955    -1.6756426     -1.2756031      0.0043779331 
      7580   0.39818981    -1.6736769     -1.2755269      0.0099073646 
      7590   0.39946171    -1.6742102     -1.2747884      0.0093253892 
      7600   0.40313982    -1.6742427     -1.2711432      0.010103688  
      7610   0.39824406    -1.6722577     -1.2740534      0.012115671  
      7620   0.39542758    -1.6730822     -1.2776942      0.0092763906 
      7630   0.39609991    -1.6689319     -1.2728716      0.019084715  
      7640   0.39963425    -1.6719612     -1.2723669      0.0099502089 
      7650   0.40013484    -1.6723976     -1.2723028      0.0030601441 
      7660   0.40168361    -1.6713536     -1.2697102      0.0070269329 
      7670   0.40275061    -1.6766075     -1.2738971      0.0027773145 
      7680   0.39846048    -1.6756836     -1.277263       0.0088147267 
      7690   0.40174367    -1.6808674     -1.279164       0.0069550545 
      7700   0.40165855    -1.6785778     -1.2769595      0.017526534  
      7710   0.40252558    -1.6821206     -1.2796353      0.013733613  
      7720   0.40080471    -1.678038      -1.2772734      0.025371129  
      7730   0.40180529    -1.6775463     -1.2757812      0.019753705  
      7740   0.40590295    -1.6811779     -1.2753156      0.0077389479 
      7750   0.40577021    -1.6788576     -1.2731279      0.012611923  
      7760   0.40752157    -1.681675      -1.2741942      0.0021273153 
      7770   0.4039593     -1.6789462     -1.2750273      0.011785977  
      7780   0.40128855    -1.6754191     -1.2741706      0.01809104   
      7790   0.40595606    -1.6805881     -1.2746726      0.0080669799 
      7800   0.4029493     -1.6763562     -1.2734472      0.021633579  
      7810   0.40699536    -1.6798883     -1.2729337      0.014327684  
      7820   0.40124772    -1.6765916     -1.275384       0.019165951  
      7830   0.39386597    -1.6691373     -1.2753107      0.025599255  
      7840   0.39696223    -1.672085      -1.2751625      0.0075986662 
      7850   0.39843783    -1.6746031     -1.2762051      0.0067189137 
      7860   0.40342602    -1.6759934     -1.2726078      0.019029168  
      7870   0.40548288    -1.6800935     -1.2746511      0.007179704  
      7880   0.40463704    -1.6813266     -1.27673        0.013606468  
      7890   0.40090601    -1.6794074     -1.2785415      0.020718844  
      7900   0.40102444    -1.6770842     -1.2760999      0.02413159   
      7910   0.40561942    -1.6797188     -1.27414        0.020009474  
      7920   0.40401076    -1.6798922     -1.2759219      0.01100946   
      7930   0.40406127    -1.6835179     -1.279497       0.0090256224 
      7940   0.4046871     -1.6823458     -1.2776992      0.025461792  
      7950   0.40644154    -1.684767      -1.2783661      0.017236779  
      7960   0.4033469     -1.6740972     -1.2707906      0.019522019  
      7970   0.40710799    -1.6760316     -1.2689643      0.0065753235 
      7980   0.40326874    -1.671655      -1.2684266      0.02004321   
      7990   0.40955296    -1.6806235     -1.2711115      0.0060510722 
      8000   0.4071675     -1.6806268     -1.2735         0.012023863  
      8010   0.4060543     -1.6803196     -1.2743059      0.016227985  
      8020   0.40566458    -1.6803212     -1.2746972      0.01548592   
      8030   0.40237084    -1.6767952     -1.2744646      0.018294927  
      8040   0.40510973    -1.6802684     -1.2751992      0.0077687891 
      8050   0.40436077    -1.6786778     -1.2743575      0.011850939  
      8060   0.4075132     -1.6761718     -1.2686994      0.017666448  
      8070   0.40388701    -1.6772123     -1.2733657      0.013739148  
      8080   0.40334637    -1.6793986     -1.2760925      0.015979692  
      8090   0.40750247    -1.6792061     -1.2717443      0.014162906  
      8100   0.40865814    -1.6817135     -1.2730963      0.009508388  
      8110   0.40440809    -1.6793706     -1.275003       0.021825202  
      8120   0.40522833    -1.678173      -1.2729851      0.02256813   
      8130   0.40910423    -1.6807882     -1.2717249      0.002354493  
      8140   0.40509394    -1.6802458     -1.2751924     -0.0027416516 
      8150   0.406622      -1.6801089     -1.2735275     -0.0048950185 
      8160   0.40500967    -1.6772404     -1.2722712      0.0089825507 
      8170   0.40359629    -1.6784135     -1.2748575      0.011517077  
      8180   0.40435282    -1.677532      -1.2732196      0.012249363  
      8190   0.40304723    -1.6783604     -1.2753534      0.013692831  
      8200   0.40384844    -1.6824248     -1.2786167      0.012228165  
      8210   0.4067205     -1.68207       -1.2753901      0.02076433   
      8220   0.40637894    -1.6844        -1.2780617      0.012513846  
      8230   0.40940728    -1.6866928     -1.2773265      0.017007248  
      8240   0.41123273    -1.6893627     -1.2781711      0.022898316  
      8250   0.40905546    -1.6870424     -1.2780279      0.033339891  
      8260   0.41093632    -1.6916729     -1.2807777      0.015775267  
      8270   0.41138133    -1.6900267     -1.2786865      0.020655281  
      8280   0.40938927    -1.6880053     -1.278657       0.027318686  
      8290   0.40721833    -1.6861211     -1.2789435      0.038669004  
      8300   0.40979915    -1.6882485     -1.2784903      0.025605095  
      8310   0.41032749    -1.6902533     -1.2799669      0.0080727708 
      8320   0.40943592    -1.68709       -1.277695       0.014987169  
      8330   0.4073815     -1.6896486     -1.2823078      0.0089621467 
      8340   0.41141045    -1.6899272     -1.2785579      0.010868453  
      8350   0.41206624    -1.6889189     -1.2768939      0.030660892  
      8360   0.40974449    -1.692038      -1.2823344      0.027137584  
      8370   0.40577545    -1.6871725     -1.2814377      0.026538585  
      8380   0.40998344    -1.6880155     -1.2780731      0.0081318904 
      8390   0.40631124    -1.6805503     -1.2742797      0.021440512  
      8400   0.40730249    -1.6834261     -1.2761643      0.01758189   
      8410   0.40737513    -1.6856724     -1.278338       0.012054974  
      8420   0.41133425    -1.6875197     -1.2762266      0.019184799  
      8430   0.40892956    -1.6865708     -1.2776822      0.020400811  
      8440   0.41057773    -1.6908173     -1.2802806      0.012577865  
      8450   0.40990249    -1.6898931     -1.2800316      0.019976349  
      8460   0.40760255    -1.6878255     -1.2802637      0.015173471  
      8470   0.4107859     -1.6845999     -1.2738551      0.014127939  
      8480   0.40858782    -1.6805198     -1.2719729      0.019506962  
      8490   0.40995802    -1.6827988     -1.2728818      0.012964593  
      8500   0.40781146    -1.6828277     -1.275057       0.0094121657 
      8510   0.40629598    -1.6777282     -1.2714729      0.017108052  
      8520   0.41134867    -1.6811773     -1.2698698      0.0062969931 
      8530   0.4099723     -1.6860292     -1.2760979      0.0085208796 
      8540   0.41097352    -1.6885018     -1.2775694      0.020345951  
      8550   0.41128114    -1.6928847     -1.2816447      0.013582618  
      8560   0.40776895    -1.6895681     -1.28184        0.028674853  
      8570   0.41190712    -1.6927029     -1.280837       0.015781772  
      8580   0.4118473     -1.6909565     -1.2791504      0.010532918  
      8590   0.41210528    -1.6881669     -1.2761029      0.010905286  
      8600   0.41226148    -1.6864672     -1.274247       0.0079126918 
      8610   0.41250279    -1.6873572     -1.2748957      0.0044307484 
      8620   0.41375382    -1.6870588     -1.2733463      0.0075207281 
      8630   0.41064238    -1.6860024     -1.2754011      0.01027117   
      8640   0.41053462    -1.6835128     -1.2730193      0.022158872  
      8650   0.40707798    -1.6819354     -1.2748981      0.032018841  
      8660   0.41046389    -1.6861892     -1.2757664      0.027656225  
      8670   0.40758619    -1.6839134     -1.2763679      0.02469205   
      8680   0.40972395    -1.6886488     -1.2789659      0.0062239193 
      8690   0.40914635    -1.6836548     -1.2745493      0.0033206666 
      8700   0.40355524    -1.679685      -1.2761701      0.0090321292 
      8710   0.40762692    -1.6813609     -1.2737748      0.0016640159 
      8720   0.4086515     -1.6820063     -1.2733957     -0.00084561772
      8730   0.40565359    -1.6817392     -1.2761262      0.012144015  
      8740   0.4024366     -1.6809103     -1.278514       0.019146058  
      8750   0.40229616    -1.679763      -1.2775071      0.019679419  
      8760   0.40647115    -1.6883263     -1.2818958      0.005245656  
      8770   0.40868       -1.6880632     -1.2794241      0.01179769   
      8780   0.40705424    -1.6814046     -1.2743911      0.023657092  
      8790   0.40573247    -1.6840765     -1.2783846      0.01553605   
      8800   0.40494783    -1.6835463     -1.278639       0.013846672  
      8810   0.40272129    -1.6830185     -1.2803375      0.013101322  
      8820   0.40450631    -1.6839141     -1.2794483      0.014708968  
      8830   0.40565794    -1.6850663     -1.279449       0.011220965  
      8840   0.40457158    -1.6839366     -1.2794054      0.018441676  
      8850   0.40693445    -1.6813247     -1.274431       0.019078461  
      8860   0.4071935     -1.6822039     -1.2750511      0.0062272559 
      8870   0.40525394    -1.6802365     -1.2750231      0.0085548834 
      8880   0.40548088    -1.6799271     -1.2744868      0.015843064  
      8890   0.40341678    -1.6803685     -1.2769921      0.016705507  
      8900   0.4057312     -1.6836829     -1.2779923      0.0075149909 
      8910   0.40668951    -1.6826357     -1.2759869      0.013638718  
      8920   0.40563965    -1.6805429     -1.2749438      0.022985927  
      8930   0.40602957    -1.6842348     -1.2782459      0.019839624  
      8940   0.40732751    -1.6833425     -1.2760557      0.023678946  
      8950   0.40847278    -1.684865      -1.276433       0.018302935  
      8960   0.40550943    -1.6854015     -1.2799326      0.011659981  
      8970   0.40585532    -1.6836299     -1.2778152      0.0097337869 
      8980   0.40881661    -1.6825144     -1.2737387      0.019790585  
      8990   0.41015522    -1.6850855     -1.2749713      0.0068225979 
      9000   0.40832125    -1.6862825     -1.278002       0.0025322396 
      9010   0.40742182    -1.6847733     -1.2773922      0.015530137  
      9020   0.41057734    -1.6853831     -1.2748469      0.019548465  
      9030   0.41347418    -1.6874358     -1.274003       0.010968004  
      9040   0.41275505    -1.6866273     -1.2739135      0.013939992  
      9050   0.40943729    -1.6863423     -1.2769459      0.02218912   
      9060   0.40953525    -1.6890942     -1.2795999      0.020840329  
      9070   0.41100318    -1.691932      -1.28097        0.012502541  
      9080   0.41259426    -1.6924722     -1.2799192      0.012062157  
      9090   0.41030348    -1.6927656     -1.2825032      0.016686289  
      9100   0.41220578    -1.6935459     -1.2813813      0.025908867  
      9110   0.40945498    -1.6921997     -1.2827856      0.033059285  
      9120   0.41682054    -1.697604      -1.2808252      0.027765261  
      9130   0.41688757    -1.6998525     -1.2830066      0.021623086  
      9140   0.41521612    -1.6975743     -1.2823997      0.024398179  
      9150   0.41679126    -1.6953158     -1.2785662      0.026397092  
      9160   0.41910437    -1.6984271     -1.2793646      0.024539846  
      9170   0.41758429    -1.6964184     -1.2788759      0.02317213   
      9180   0.4144261     -1.6925967     -1.278212       0.024162546  
      9190   0.41448704    -1.6914972     -1.2770517      0.017637863  
      9200   0.41472777    -1.6909993     -1.276313       0.0058011553 
      9210   0.41458592    -1.6891801     -1.2746357      0.0068461469 
      9220   0.41685846    -1.6911803     -1.2743635      0.007607075  
      9230   0.41229999    -1.6854299     -1.2731711      0.020753704  
      9240   0.40885413    -1.6842556     -1.2754424      0.019757385  
      9250   0.40920185    -1.6850763     -1.2759154      0.011679329  
      9260   0.40446859    -1.6849191     -1.280491       0.0057735136 
      9270   0.40602556    -1.6852121     -1.2792271      0.010096295  
      9280   0.40815441    -1.6870506     -1.278937       0.0023922337 
      9290   0.40547366    -1.6804675     -1.2750344      0.018311803  
      9300   0.40086622    -1.6797162     -1.27889        0.021671942  
      9310   0.40263547    -1.6791832     -1.276588       0.017100803  
      9320   0.40586445    -1.6810937     -1.2752698      0.0089271675 
      9330   0.40437133    -1.6760778     -1.2717469      0.010936259  
      9340   0.40803355    -1.679784      -1.2717912      1.8830869e-05
      9350   0.40710007    -1.6783572     -1.2712978      0.0088911532 
      9360   0.40765096    -1.6802751     -1.2726649      0.001062689  
      9370   0.40264409    -1.677394      -1.2747902      0.013683235  
      9380   0.40421975    -1.6789341     -1.2747547      0.024656091  
      9390   0.40137642    -1.6802879     -1.2789516      0.030843572  
      9400   0.40455139    -1.6829349     -1.278424       0.017745276  
      9410   0.40324991    -1.6831008     -1.2798912      0.0084665056 
      9420   0.40504054    -1.6841778     -1.2791777      0.0072988624 
      9430   0.40745731    -1.6868575     -1.2794409      0.014045709  
      9440   0.40894065    -1.6866665     -1.2777668      0.02429022   
      9450   0.41097258    -1.6892121     -1.2782806      0.020641259  
      9460   0.41261587    -1.6889637     -1.2763891      0.016761547  
      9470   0.40978447    -1.6863902     -1.2766467      0.023413326  
      9480   0.40688081    -1.6868089     -1.2799688      0.021846373  
      9490   0.40988643    -1.6892802     -1.2794348      0.010902244  
      9500   0.40980488    -1.6834072     -1.2736433      0.0090292421 
      9510   0.40502382    -1.681957      -1.2769737      0.0092222115 
      9520   0.4074394     -1.6871626     -1.279764       0.0016549595 
      9530   0.40880448    -1.6835006     -1.274737       0.014876485  
      9540   0.40806486    -1.68506       -1.2770359      0.016244756  
      9550   0.40746734    -1.6861232     -1.2786966      0.015945412  
      9560   0.41110733    -1.6866135     -1.2755473      0.021413026  
      9570   0.40861904    -1.6851828     -1.2766046      0.024616867  
      9580   0.40719718    -1.6829531     -1.2757966      0.026949664  
      9590   0.4083624     -1.6865476     -1.278226       0.013800309  
      9600   0.40707961    -1.6886756     -1.2816366      0.010072745  
      9610   0.41092089    -1.6900372     -1.2791574      0.012956137  
      9620   0.4128769     -1.6906791     -1.2778435      0.016400458  
      9630   0.412125      -1.6897739     -1.2776901      0.01787276   
      9640   0.41423014    -1.6934499     -1.2792612      0.010594106  
      9650   0.41396652    -1.6913722     -1.2774471      0.025220971  
      9660   0.41718058    -1.6927432     -1.2756043      0.03012467   
      9670   0.41585243    -1.6921815     -1.2763707      0.025079277  
      9680   0.41212076    -1.6922948     -1.2802152      0.009044093  
      9690   0.41099945    -1.6871505     -1.2761921      0.014725623  
      9700   0.40966601    -1.6874837     -1.2778587      0.0097634879 
      9710   0.41063134    -1.6901405     -1.2795502     -0.0011563686 
      9720   0.41036683    -1.6879193     -1.2775935      0.010095501  
      9730   0.40881152    -1.6880202     -1.2792495      0.0025526108 
      9740   0.40780346    -1.6866443     -1.2788817      0.0015115244 
      9750   0.41017243    -1.6860798     -1.2759484      0.015420325  
      9760   0.41140622    -1.6884863     -1.2771213      0.019886654  
      9770   0.4092412     -1.6844993     -1.275299       0.030768013  
      9780   0.40924865    -1.6879593     -1.2787516      0.029314293  
      9790   0.41422694    -1.6972774     -1.2830919      0.013141033  
      9800   0.41393928    -1.6941747     -1.2802768      0.022769971  
      9810   0.41582998    -1.6970836     -1.2812952      0.020726346  
      9820   0.41622311    -1.6982261     -1.2820446      0.012433004  
      9830   0.41345312    -1.6932575     -1.2798457      0.019659944  
      9840   0.41217903    -1.6938922     -1.2817544      0.021245498  
      9850   0.41337477    -1.6918268     -1.2784934      0.020173874  
      9860   0.41525933    -1.6954874     -1.2802696      0.007598049  
      9870   0.41181364    -1.6922008     -1.2804283      0.01207499   
      9880   0.41755819    -1.6925811     -1.2750646      0.015055293  
      9890   0.41344778    -1.6893454     -1.275939       0.023256685  
      9900   0.41169467    -1.6909596     -1.2793061      0.019984035  
      9910   0.41037006    -1.6898892     -1.2795602      0.015921773  
      9920   0.41184571    -1.6893619     -1.2775574      0.014941705  
      9930   0.41292803    -1.6938237     -1.2809369      0.0065287961 
      9940   0.41197276    -1.6903307     -1.2783991      0.017219963  
      9950   0.40929192    -1.6910508     -1.2817999      0.024565357  
      9960   0.4119838     -1.6912983     -1.2793557      0.017884378  
      9970   0.41212707    -1.6929148     -1.2808289      0.0068214619 
      9980   0.41324558    -1.6923582     -1.2791539      0.016667969  
      9990   0.41255518    -1.6911619     -1.278648       0.024093171  
     10000   0.4190324     -1.6963824     -1.2773919      0.010508404  
     10010   0.41528074    -1.6945986     -1.2793594      0.0074663664 
     10020   0.41595868    -1.692328      -1.2764109      0.01331699   
     10030   0.41908975    -1.6944468     -1.275399       0.0082380975 
     10040   0.4156894     -1.6907632     -1.2751154      0.015845433  
     10050   0.41696672    -1.6917093     -1.2747843      0.018026993  
     10060   0.41687284    -1.6933056     -1.2764745      0.023515236  
     10070   0.41105438    -1.6879308     -1.2769176      0.026496443  
     10080   0.41259533    -1.6907474     -1.2781934      0.0043165577 
     10090   0.41085586    -1.6871532     -1.2763384      0.0077406068 
     10100   0.40932259    -1.6863891     -1.2771074      0.012843432  
     10110   0.40795095    -1.6826441     -1.274734       0.019797223  
     10120   0.40729018    -1.6802303     -1.2729808      0.024712731  
     10130   0.40872228    -1.6827333     -1.2740518      0.013432627  
     10140   0.40957364    -1.6824679     -1.2729352      0.0090905368 
     10150   0.40430823    -1.6837837     -1.2795159      0.016881396  
     10160   0.40478805    -1.6832524     -1.2785048      0.017669857  
     10170   0.40994412    -1.682649      -1.2727459      0.01052692   
     10180   0.41095835    -1.6867442     -1.275827       0.008809659  
     10190   0.407602      -1.6854784     -1.2779172      0.01260351   
     10200   0.40636397    -1.6872564     -1.280933       0.0093004574 
     10210   0.41285845    -1.6871022     -1.274285       0.016834639  
     10220   0.411508      -1.6857667     -1.2742998      0.014901771  
     10230   0.40933386    -1.6865648     -1.2772719      0.01079393   
     10240   0.40912124    -1.6879257     -1.2788453      0.0098206913 
     10250   0.41072689    -1.6905142     -1.2798284      0.0060171025 
     10260   0.41335149    -1.6896988     -1.2763886      0.023213898  
     10270   0.41605578    -1.6909029     -1.2748888      0.021368924  
     10280   0.411112      -1.6889505     -1.2778796      0.027350985  
     10290   0.41004207    -1.6894219     -1.2794208      0.021827903  
     10300   0.41304369    -1.6921182     -1.2791158      0.0074308883 
     10310   0.4145526     -1.6860981     -1.2715869      0.01789823   
     10320   0.41831439    -1.6900957     -1.2718232      0.014958647  
     10330   0.41702774    -1.6933642     -1.2763781      0.0097544991 
     10340   0.41587135    -1.6925696     -1.2767399      0.015626685  
     10350   0.41283653    -1.6920973     -1.279302       0.019014569  
     10360   0.41366571    -1.6919337     -1.2783093      0.024488127  
     10370   0.41741926    -1.6948553     -1.2774778      0.010368395  
     10380   0.41284918    -1.6921485     -1.2793406      0.0070249836 
     10390   0.41619574    -1.6942347     -1.2780806      0.0021515105 
     10400   0.41527736    -1.6921565     -1.2769207      0.0081923164 
     10410   0.41439865    -1.6915927     -1.2772355      0.012109694  
     10420   0.41809109    -1.6943458     -1.2762965      0.01564463   
     10430   0.4169096     -1.6948825     -1.2780146      0.025424759  
     10440   0.41820005    -1.6944939     -1.2763357      0.024873728  
     10450   0.42301197    -1.6975532     -1.2745835      0.01618922   
     10460   0.42178645    -1.6990127     -1.2772684      0.013256179  
     10470   0.41678741    -1.6956529     -1.2789072      0.022531375  
     10480   0.41955606    -1.6955133     -1.2759992      0.017759952  
     10490   0.41992569    -1.6952941     -1.2754104      0.010040941  
     10500   0.41831218    -1.6936613     -1.275391       0.018652288  
     10510   0.41611012    -1.6948201     -1.2787515      0.011130926  
     10520   0.41768479    -1.6979206     -1.2802776      0.0050366095 
     10530   0.41324394    -1.6942903     -1.2810876      0.019816083  
     10540   0.41580956    -1.6895711     -1.2738031      0.021268077  
     10550   0.41742864    -1.6897994     -1.2724125      0.013331084  
     10560   0.41815459    -1.6912693     -1.2731566      0.010695672  
     10570   0.41704261    -1.6912667     -1.2742657      0.010692761  
     10580   0.41903533    -1.6929219     -1.2739284      0.0089433599 
     10590   0.4153779     -1.6914715     -1.2761352      0.0048527431 
     10600   0.41389944    -1.6898501     -1.2759921      0.0068669145 
     10610   0.4125213     -1.6891555     -1.2766755      0.010698731  
     10620   0.41520069    -1.6926603     -1.2775011      0.0045862126 
     10630   0.4184576     -1.6891233     -1.2707075      0.024434754  
     10640   0.41825609    -1.6928215     -1.2746073      0.025575121  
     10650   0.41764446    -1.6955885     -1.2779858      0.02360172   
     10660   0.41592573    -1.69786       -1.2819759      0.021082154  
     10670   0.41490047    -1.6982285     -1.2833695      0.026447128  
     10680   0.41854053    -1.7027749     -1.2842762      0.016952278  
     10690   0.42201368    -1.702001      -1.2800295      0.027700313  
     10700   0.42009732    -1.7027072     -1.2826519      0.026494672  
     10710   0.41417916    -1.6945851     -1.2804473      0.03781129   
     10720   0.41563297    -1.700486      -1.2848946      0.017216549  
     10730   0.41642329    -1.6977972     -1.2814156      0.021440856  
     10740   0.41344491    -1.6924117     -1.2790081      0.030970896  
     10750   0.41809537    -1.7003414     -1.2822879      0.0067671613 
     10760   0.41862364    -1.6980701     -1.2794884      0.0042077507 
     10770   0.41542359    -1.6912734     -1.2758913      0.012177338  
     10780   0.41418545    -1.6939541     -1.2798101      0.0058897167 
     10790   0.41339903    -1.6926187     -1.279261       0.011883127  
     10800   0.41501235    -1.6936522     -1.2786814      0.012962138  
     10810   0.41417401    -1.6946688     -1.2805362      0.014206483  
     10820   0.41477475    -1.6925011     -1.2777678      0.025056076  
     10830   0.4155272     -1.6972738     -1.2817881      0.010748365  
     10840   0.41634517    -1.696567      -1.2802634      0.0037317853 
     10850   0.41184321    -1.6901136     -1.2783116      0.020497263  
     10860   0.40962726    -1.6895437     -1.2799574      0.01467575   
     10870   0.41368634    -1.6899309     -1.2762859      0.0094690754 
     10880   0.41095599    -1.6891329     -1.278218       0.012067509  
     10890   0.41570975    -1.6897543     -1.2740861      0.015412718  
     10900   0.41620445    -1.6924507     -1.2762879      0.014657204  
     10910   0.41487116    -1.6947672     -1.2799375      0.013517815  
     10920   0.41501197    -1.6963938     -1.2814233      0.0044042351 
     10930   0.4182567     -1.6969015     -1.2786866      0.013090941  
     10940   0.42097791    -1.6986095     -1.2776736      0.017412991  
     10950   0.42246067    -1.7036691     -1.2812507      0.018125591  
     10960   0.42067929    -1.7004316     -1.2797944      0.029969496  
     10970   0.42075558    -1.7047938     -1.2840803      0.028371754  
     10980   0.41895269    -1.7004774     -1.2815666      0.043927749  
     10990   0.42248552    -1.7048745     -1.2824313      0.030111451  
     11000   0.41833869    -1.6998107     -1.2815138      0.026837311  
Loop time of 154.135 on 12 procs for 10000 steps with 10000 atoms

Performance: 28027.353 tau/day, 64.878 timesteps/s, 648.781 katom-step/s
116.0% CPU use with 1 MPI tasks x 12 OpenMP threads

MPI task timing breakdown:
Section |  min time  |  avg time  |  max time  |%varavg| %total
---------------------------------------------------------------
Pair    | 135.73     | 135.73     | 135.73     |   0.0 | 88.06
Neigh   | 0.44607    | 0.44607    | 0.44607    |   0.0 |  0.29
Comm    | 0.41759    | 0.41759    | 0.41759    |   0.0 |  0.27
Output  | 1.9478     | 1.9478     | 1.9478     |   0.0 |  1.26
Modify  | 13.812     | 13.812     | 13.812     |   0.0 |  8.96
Other   |            | 1.786      |            |       |  1.16

Nlocal:          10000 ave       10000 max       10000 min
Histogram: 1 0 0 0 0 0 0 0 0 0
Nghost:            641 ave         641 max         641 min
Histogram: 1 0 0 0 0 0 0 0 0 0
Neighs:          53180 ave       53180 max       53180 min
Histogram: 1 0 0 0 0 0 0 0 0 0

Total # of neighbors = 53180
Ave neighs/atom = 5.318
Neighbor list builds = 244
Dangerous builds = 0
unfix mynve

fix mynvt all nvt/asphere temp 2.0 0.1 $(100.0*dt)
fix mynvt all nvt/asphere temp 2.0 0.1 0.5
run 50000
Generated 0 of 0 mixed pair_coeff terms from geometric mixing rule
Per MPI rank memory allocation (min/avg/max) = 23.66 | 23.66 | 23.66 Mbytes
   Step          Temp          E_pair         TotEng         Press     
     11000   0.41833869    -1.6998107     -1.2815138      0.026837311  
     11010   0.42299465    -1.700343      -1.2773906      0.015057585  
     11020   0.42496431    -1.697355      -1.2724332      0.01371426   
     11030   0.42883705    -1.6940338     -1.2652396      0.018244605  
     11040   0.43295481    -1.6885546     -1.255643       0.02670306   
     11050   0.44209081    -1.6885162     -1.2464696      0.021352836  
     11060   0.44746711    -1.6768254     -1.229403       0.041454348  
     11070   0.45640047    -1.677183      -1.2208282      0.032846874  
     11080   0.46592975    -1.6777897     -1.2119065      0.024905607  
     11090   0.47462982    -1.668165      -1.1935827      0.039897229  
     11100   0.47971166    -1.6624733     -1.1828096      0.030941836  
     11110   0.48912551    -1.6548666     -1.16579        0.035666168  
     11120   0.49295093    -1.646882      -1.1539803      0.036271797  
     11130   0.49678779    -1.6359072     -1.1391691      0.047161361  
     11140   0.50479967    -1.6305832     -1.125834       0.038499792  
     11150   0.51252966    -1.616018      -1.1035396      0.04745264   
     11160   0.52419006    -1.6117758     -1.0876381      0.037993875  
     11170   0.52656686    -1.5979469     -1.0714327      0.049117635  
     11180   0.53415675    -1.5922806     -1.0581772      0.049253631  
     11190   0.54501392    -1.5801365     -1.0351771      0.060031374  
     11200   0.55026337    -1.5709049     -1.0206965      0.060390769  
     11210   0.56037742    -1.5610788     -1.0007574      0.062415565  
     11220   0.57273665    -1.5509719     -0.9782925      0.070751278  
     11230   0.58530096    -1.5462911     -0.96104871     0.059382436  
     11240   0.58717906    -1.5340695     -0.94694916     0.059286994  
     11250   0.59821274    -1.5237087     -0.92555574     0.051781292  
     11260   0.6044455     -1.5118996     -0.9075145      0.045111879  
     11270   0.61180262    -1.4973256     -0.88558419     0.053473644  
     11280   0.62216749    -1.4824058     -0.86030054     0.070381631  
     11290   0.63394565    -1.4719751     -0.83809289     0.06968488   
     11300   0.6510346     -1.4609793     -0.81000976     0.054739295  
     11310   0.66553085    -1.4470833     -0.78161896     0.062520032  
     11320   0.67267572    -1.4322769     -0.75966845     0.075706527  
     11330   0.69025884    -1.4272342     -0.73704443     0.071301666  
     11340   0.70295933    -1.4162848     -0.71339581     0.077909489  
     11350   0.7113527     -1.3992585     -0.68797695     0.088415358  
     11360   0.72702465    -1.3900811     -0.66312916     0.075125639  
     11370   0.74420411    -1.3776726     -0.63354292     0.08332343   
     11380   0.76159677    -1.3668451     -0.6053245      0.080871729  
     11390   0.77467573    -1.3539947     -0.57939641     0.092407754  
     11400   0.7917244     -1.3443239     -0.55267871     0.088660817  
     11410   0.79859249    -1.325711      -0.52719835     0.093482892  
     11420   0.80609539    -1.3109925     -0.50497772     0.10377208   
     11430   0.82276663    -1.2975425     -0.47485818     0.1008709    
     11440   0.84170257    -1.2863955     -0.44477713     0.10574421   
     11450   0.85921745    -1.2683956     -0.40926403     0.12483073   
     11460   0.87456876    -1.2598232     -0.38534188     0.10950738   
     11470   0.88843326    -1.2401389     -0.35179448     0.11915296   
     11480   0.90486735    -1.2296425     -0.3248656      0.12177701   
     11490   0.92486055    -1.2140405     -0.28927242     0.12810521   
     11500   0.94302298    -1.2029283     -0.25999965     0.12499635   
     11510   0.96373589    -1.1944984     -0.23085886     0.1158037    
     11520   0.97641071    -1.1704479     -0.19413483     0.1428258    
     11530   1.0007699     -1.1605865     -0.15991668     0.14384979   
     11540   1.0189633     -1.147958      -0.12909663     0.13941851   
     11550   1.0378851     -1.1332816     -0.095500348    0.14138399   
     11560   1.0525502     -1.1123772     -0.059932279    0.1663827    
     11570   1.0784869     -1.1078779     -0.029498894    0.14943666   
     11580   1.1010276     -1.0937634      0.0071540507   0.14685986   
     11590   1.1258308     -1.0745684      0.051149785    0.16643594   
     11600   1.1490626     -1.057665       0.091282722    0.17651734   
     11610   1.1758276     -1.0458672      0.12984278     0.18689768   
     11620   1.2076698     -1.039175       0.16837402     0.17076442   
     11630   1.2290209     -1.0215852      0.20731275     0.1768741    
     11640   1.2533897     -1.0049916      0.24827275     0.18959941   
     11650   1.2795348     -0.99856372     0.28084313     0.18727542   
     11660   1.3050298     -0.98664399     0.31825527     0.19514251   
     11670   1.3213157     -0.96661358     0.35456998     0.2103218    
     11680   1.3476491     -0.95933267     0.38818164     0.20363582   
     11690   1.376258      -0.93886274     0.43725763     0.22782473   
     11700   1.4134792     -0.93819085     0.47514701     0.21310146   
     11710   1.4309715     -0.91302983     0.51779857     0.2452804    
     11720   1.4644877     -0.90606767     0.55827362     0.24177909   
     11730   1.4878096     -0.89281686     0.59484394     0.25338808   
     11740   1.5112001     -0.87010011     0.64094884     0.26906826   
     11750   1.5385559     -0.86414176     0.67426027     0.26084438   
     11760   1.5618139     -0.8494228      0.71223487     0.26822213   
     11770   1.6018399     -0.84549824     0.75618149     0.24840958   
     11780   1.6378753     -0.8318084      0.80590307     0.26182995   
     11790   1.6637484     -0.81521329     0.84836872     0.27616842   
     11800   1.6901771     -0.80432178     0.88568633     0.28614668   
     11810   1.7197837     -0.78512348     0.93448827     0.3085768    
     11820   1.7471592     -0.77825989     0.96872463     0.30488478   
     11830   1.7826086     -0.77166221     1.0107681      0.30818059   
     11840   1.8145573     -0.75652961     1.0578462      0.3096334    
     11850   1.8401493     -0.74368668     1.0962786      0.32264744   
     11860   1.8640078     -0.72976661     1.1340548      0.33288943   
     11870   1.8922024     -0.72241009     1.1696031      0.33428113   
     11880   1.9115774     -0.71220301     1.1991832      0.3368819    
     11890   1.9323497     -0.69405868     1.2380977      0.36131142   
     11900   1.9737628     -0.69447196     1.2790935      0.34576223   
     11910   1.9964042     -0.68124319     1.3149613      0.35597202   
     11920   2.0240719     -0.67196207     1.3519074      0.3700098    
     11930   2.0510442     -0.65914512     1.391694       0.37679963   
     11940   2.0767458     -0.65893551     1.4176026      0.3782005    
     11950   2.094926      -0.64933959     1.445377       0.3750515    
     11960   2.1157745     -0.64047639     1.4750865      0.38418045   
     11970   2.116782      -0.6264853      1.490085       0.39998561   
     11980   2.1373235     -0.61589249     1.5212173      0.41517747   
     11990   2.1638825     -0.61369356     1.5499726      0.3998891    
     12000   2.1812456     -0.59694131     1.5840861      0.41624308   
     12010   2.1922412     -0.59141932     1.6006027      0.41348237   
     12020   2.197255      -0.59531515     1.6017201      0.40804359   
     12030   2.2087509     -0.57525353     1.6332765      0.43036608   
     12040   2.2115425     -0.56822847     1.6430929      0.42649107   
     12050   2.2232856     -0.56482411     1.6582392      0.4243246    
     12060   2.2358369     -0.56917445     1.6664389      0.39925292   
     12070   2.2297944     -0.55976168     1.6698098      0.40754139   
     12080   2.2166231     -0.54728495     1.6691165      0.42497165   
     12090   2.2075258     -0.5386712      1.6686339      0.43318248   
     12100   2.1975986     -0.53737036     1.6600085      0.41943337   
     12110   2.1989685     -0.54428998     1.6544586      0.39899232   
     12120   2.1731687     -0.52794613     1.6450053      0.43495218   
     12130   2.1652376     -0.52789073     1.6371304      0.43236987   
     12140   2.1636166     -0.52751345     1.6358868      0.42090276   
     12150   2.1343273     -0.52336753     1.6107463      0.41296384   
     12160   2.1118117     -0.51886309     1.5927374      0.41645159   
     12170   2.0870304     -0.5212397      1.565582       0.40485671   
     12180   2.0593411     -0.52270644     1.5364288      0.39645129   
     12190   2.0522933     -0.52110862     1.5309795      0.40437307   
     12200   2.0272305     -0.50382794     1.5231999      0.41261683   
     12210   2.0255364     -0.51558247     1.5097513      0.37719025   
     12220   1.9971135     -0.50377206     1.4931417      0.39876362   
     12230   1.9859694     -0.49298767     1.4927831      0.40545211   
     12240   1.9831595     -0.5050836      1.4778776      0.38627249   
     12250   1.9776719     -0.5061599      1.4713142      0.37158278   
     12260   1.9761607     -0.49156448     1.4843986      0.39907829   
     12270   1.9704391     -0.49662411     1.4736179      0.36973534   
     12280   1.9572593     -0.4948958      1.4621678      0.37534626   
     12290   1.9540175     -0.49370107     1.460121       0.37605025   
     12300   1.9581294     -0.49826689     1.4596667      0.36459253   
     12310   1.940186      -0.49249996     1.447492       0.36791358   
     12320   1.931282      -0.49001805     1.4410708      0.37435547   
     12330   1.9363214     -0.48935309     1.4467747      0.3745374    
     12340   1.9467867     -0.49010764     1.4564844      0.37101622   
     12350   1.9539116     -0.49096062     1.4627556      0.36859303   
     12360   1.9520035     -0.48393627     1.4678721      0.38588669   
     12370   1.9553996     -0.47806134     1.4771428      0.39325876   
     12380   1.9580526     -0.47441763     1.4834392      0.39487121   
     12390   1.9696369     -0.48508914     1.4843508      0.36936087   
     12400   1.9792        -0.47619375     1.5028084      0.39052304   
     12410   1.9883804     -0.46806645     1.5201151      0.3975344    
     12420   1.9964296     -0.46498244     1.5312476      0.38694956   
     12430   2.0018137     -0.4786632      1.5229503      0.36525461   
     12440   2.0035409     -0.45822793     1.5451126      0.41279427   
     12450   2.0238596     -0.45963646     1.5640208      0.41871859   
     12460   2.0371421     -0.46516695     1.5717715      0.39922868   
     12470   2.0463478     -0.45227445     1.5938687      0.42597941   
     12480   2.0664555     -0.45418305     1.6120659      0.40573683   
     12490   2.0805082     -0.45706994     1.6232302      0.40042874   
     12500   2.0875593     -0.4583627      1.6289879      0.41280641   
     12510   2.0871361     -0.45118033     1.635747       0.4215104    
     12520   2.0881334     -0.4523929      1.6355316      0.42502702   
     12530   2.0699743     -0.43696099     1.6328063      0.43490022   
     12540   2.0718311     -0.45013515     1.6214888      0.3980993    
     12550   2.0601748     -0.44632242     1.6136464      0.3961767    
     12560   2.058085      -0.44544365     1.6124356      0.40663808   
     12570   2.0474856     -0.44808946     1.5991914      0.39928156   
     12580   2.0350279     -0.43907658     1.5957478      0.41347777   
     12590   2.0349159     -0.44059784     1.5941145      0.41187358   
     12600   2.0298724     -0.44198668     1.5876828      0.39970293   
     12610   2.0093304     -0.44340418     1.5657253      0.38939231   
     12620   1.9905264     -0.43877178     1.5515556      0.40365431   
     12630   1.9808467     -0.44189785     1.5387508      0.40095595   
     12640   1.9742704     -0.4371051      1.5369678      0.409991     
     12650   1.9692878     -0.43168566     1.5374052      0.42464797   
     12660   1.9587557     -0.43922969     1.5193301      0.39366148   
     12670   1.950867      -0.44220081     1.5084711      0.39385698   
     12680   1.9407441     -0.44347111     1.4970789      0.38243864   
     12690   1.9279273     -0.43934501     1.4883895      0.37574114   
     12700   1.9239255     -0.43971184     1.4840212      0.39439858   
     12710   1.921031      -0.44700514     1.4738338      0.38194927   
     12720   1.9117211     -0.44059019     1.4709397      0.39554064   
     12730   1.9027115     -0.43610945     1.4664117      0.39290286   
     12740   1.9002903     -0.43489285     1.4652074      0.3903308    
     12750   1.9019614     -0.44713441     1.4546368      0.37542172   
     12760   1.8904739     -0.43183975     1.4584451      0.40885587   
     12770   1.8850553     -0.43086523     1.4540016      0.40356254   
     12780   1.8838982     -0.44196167     1.4417481      0.38567858   
     12790   1.8854974     -0.43355572     1.4517532      0.38692997   
     12800   1.891644      -0.43037476     1.46108        0.39201421   
     12810   1.8856285     -0.4312752      1.4541647      0.38589685   
     12820   1.8852131     -0.4339154      1.4511091      0.37745933   
     12830   1.8997906     -0.42284269     1.4767579      0.39781873   
     12840   1.9149183     -0.43394322     1.4807836      0.37457419   
     12850   1.9121485     -0.42017543     1.4917818      0.40098838   
     12860   1.9244624     -0.4212121      1.5030579      0.40338648   
     12870   1.9543288     -0.42919441     1.524939       0.38200702   
     12880   1.9582985     -0.42336391     1.5347388      0.39460904   
     12890   1.9597841     -0.42452122     1.5350669      0.39681176   
     12900   1.9583405     -0.42655875     1.5315859      0.3936019    
     12910   1.9609466     -0.41876574     1.5419848      0.40454693   
     12920   1.9690987     -0.41572562     1.5531761      0.41493029   
     12930   1.9764277     -0.41331852     1.5629115      0.42004155   
     12940   1.9978799     -0.41954684     1.5781333      0.39683682   
     12950   2.0095208     -0.41372764     1.5955922      0.39838083   
     12960   2.0143936     -0.41246635     1.6017258      0.39829358   
     12970   2.012904      -0.41119441     1.6015083      0.40670854   
     12980   2.0085304     -0.40550474     1.6028248      0.40175097   
     12990   2.0156749     -0.4083054      1.6071679      0.40689188   
     13000   2.0106189     -0.40704787     1.6033699      0.40887501   
     13010   1.9949157     -0.40533511     1.5893811      0.40436467   
     13020   1.9918029     -0.4041188      1.587485       0.40881268   
     13030   1.9849831     -0.40027712     1.5845075      0.41790618   
     13040   1.9898972     -0.40696099     1.5827372      0.40280114   
     13050   1.9685156     -0.40655289     1.5617658      0.38533885   
     13060   1.9566401     -0.40386538     1.552579       0.40147497   
     13070   1.9556172     -0.402345       1.5530766      0.40381588   
     13080   1.9499323     -0.40472306     1.5450142      0.39835754   
     13090   1.9360346     -0.40668623     1.5291548      0.38665874   
     13100   1.9248974     -0.40334792     1.5213569      0.39150132   
     13110   1.9221534     -0.40263406     1.5193271      0.39615262   
     13120   1.9247397     -0.40851162     1.5160356      0.38757579   
     13130   1.9198328     -0.41486941     1.5047714      0.3838035    
     13140   1.909661      -0.40608801     1.5033821      0.3953766    
     13150   1.8934403     -0.40792458     1.4853263      0.39431365   
     13160   1.8919307     -0.4004008      1.4913407      0.39943118   
     13170   1.893107      -0.40301094     1.4899067      0.38227971   
     13180   1.8902463     -0.39800914     1.4920481      0.38416472   
     13190   1.8863306     -0.40439823     1.4817437      0.37059901   
     13200   1.8715166     -0.39152747     1.479802       0.39517579   
     13210   1.8730467     -0.39215824     1.4807011      0.39053843   
     13220   1.8848628     -0.40507355     1.4796008      0.36790731   
     13230   1.872784      -0.40214354     1.4704532      0.37595546   
     13240   1.8687071     -0.40889001     1.4596302      0.37403845   
     13250   1.8730613     -0.40843367     1.4644403      0.38787016   
     13260   1.8800436     -0.39929792     1.4805576      0.41682858   
     13270   1.8891947     -0.40720353     1.4818023      0.40193013   
     13280   1.9007501     -0.4113262      1.4892338      0.40109494   
     13290   1.9038164     -0.41051066     1.4931153      0.39978711   
     13300   1.9100279     -0.41762561     1.4922113      0.38616221   
     13310   1.9130629     -0.4022164      1.5106552      0.40943262   
     13320   1.9275706     -0.40997838     1.5173994      0.40859935   
     13330   1.931691      -0.40460809     1.5268898      0.40117093   
     13340   1.9373128     -0.41085361     1.5262655      0.39715658   
     13350   1.9456633     -0.40488313     1.5405856      0.40624328   
     13360   1.9653454     -0.41640276     1.5487461      0.39036324   
     13370   1.9572672     -0.40474614     1.5523254      0.409103     
     13380   1.9609036     -0.40194597     1.5587616      0.42199176   
     13390   1.9652508     -0.4052539      1.5598003      0.40808695   
     13400   1.9719232     -0.41698325     1.5547427      0.39626719   
     13410   1.9748664     -0.40823213     1.5664368      0.3966715    
     13420   1.980503      -0.40431492     1.57599        0.40412689   
     13430   1.9796159     -0.40640106     1.5730169      0.41079694   
     13440   1.9782116     -0.41097429     1.5670395      0.39921487   
     13450   1.9790005     -0.40742872     1.5713739      0.40695124   
     13460   1.9741443     -0.40908663     1.5648603      0.39998701   
     13470   1.9622859     -0.40715186     1.5549379      0.40454221   
     13480   1.9536173     -0.41150257     1.5419194      0.3932861    
     13490   1.9328796     -0.41057037     1.5221159      0.39009499   
     13500   1.9100595     -0.39967857     1.51019        0.41946201   
     13510   1.9106549     -0.40957606     1.5008878      0.39110524   
     13520   1.9038793     -0.40523977     1.4984491      0.39068189   
     13530   1.8956145     -0.40374563     1.4916793      0.39579586   
     13540   1.89632       -0.40722112     1.4889092      0.380286     
     13550   1.8924739     -0.39994956     1.4923351      0.38828883   
     13560   1.8898711     -0.39937796     1.4903041      0.388894     
     13570   1.8939932     -0.41278959     1.4810143      0.36619916   
     13580   1.8817895     -0.40139722     1.4802041      0.3860235    
     13590   1.872243      -0.40341944     1.4686363      0.38483283   
     13600   1.8749473     -0.40186576     1.472894       0.38923723   
     13610   1.869025      -0.39644265     1.4723954      0.39092991   
     13620   1.8558511     -0.40038306     1.4552824      0.37782912   
     13630   1.854926      -0.40488497     1.4498555      0.35517073   
     13640   1.8527137     -0.40109276     1.4514356      0.36892002   
     13650   1.8487738     -0.39984948     1.4487395      0.38263684   
     13660   1.8421717     -0.40268361     1.4393039      0.36498745   
     13670   1.8425039     -0.40555082     1.4367688      0.3708042    
     13680   1.8500245     -0.39501307     1.4548264      0.40112271   
     13690   1.8532582     -0.39367999     1.4593929      0.39567908   
     13700   1.8609229     -0.40961429     1.4511225      0.36044685   
     13710   1.8624387     -0.4021324      1.4601201      0.36592725   
     13720   1.8641172     -0.3962178      1.467713       0.3921133    
     13730   1.8707404     -0.40188199     1.4686714      0.38171145   
     13740   1.8747183     -0.39122752     1.4833033      0.40460352   
     13750   1.8796455     -0.39935143     1.4801061      0.3982299    
     13760   1.8850741     -0.40000598     1.4848796      0.39529638   
     13770   1.8907891     -0.40114925     1.4894508      0.3852019    
     13780   1.9122597     -0.39920185     1.5128667      0.39235543   
     13790   1.9121309     -0.40276156     1.5091781      0.37312208   
     13800   1.9036384     -0.39062255     1.5128255      0.40499527   
     13810   1.9101557     -0.38852346     1.5214413      0.41799593   
     13820   1.9228758     -0.40322609     1.5194574      0.38765207   
     13830   1.9180443     -0.39428817     1.5235643      0.41208629   
     13840   1.9314035     -0.39954406     1.5316663      0.39142238   
     13850   1.9346355     -0.39957645     1.5348656      0.39494178   
     13860   1.936029      -0.39595804     1.5398774      0.41007599   
     13870   1.9418967     -0.40195999     1.5397426      0.39946325   
     13880   1.9433741     -0.39064698     1.5525328      0.41354434   
     13890   1.9502511     -0.39712766     1.5529284      0.40056317   
     13900   1.9438042     -0.40253285     1.541077       0.38807037   
     13910   1.9427498     -0.39710102     1.5454545      0.38877212   
     13920   1.9389335     -0.39084458     1.5478951      0.40589951   
     13930   1.9181227     -0.38842018     1.5295107      0.40686376   
     13940   1.9238472     -0.39751886     1.5261359      0.38129721   
     13950   1.9155759     -0.39648554     1.5188988      0.38561342   
     13960   1.9048386     -0.39249542     1.5121527      0.38279146   
     13970   1.9042013     -0.38956766     1.5144432      0.3964997    
     13980   1.9081961     -0.39897233     1.5090329      0.38727881   
     13990   1.8925567     -0.39480985     1.4975576      0.40206737   
     14000   1.8734575     -0.3910825      1.4821877      0.40431615   
     14010   1.8728453     -0.38891975     1.4837383      0.40377816   
     14020   1.8672655     -0.394198       1.4728808      0.38436797   
     14030   1.8567283     -0.39522933     1.4613133      0.37841707   
     14040   1.848949      -0.3967806      1.4519835      0.3746539    
     14050   1.8527911     -0.39567064     1.4569352      0.3806427    
     14060   1.8499016     -0.39261523     1.4571014      0.39027519   
     14070   1.8461281     -0.39892506     1.4470184      0.37793328   
     14080   1.8517904     -0.40690819     1.444697       0.36625488   
     14090   1.8338762     -0.39486647     1.4388264      0.39741229   
     14100   1.8418418     -0.39584058     1.445817       0.39099827   
     14110   1.8497545     -0.40737079     1.4421988      0.35411634   
     14120   1.8404033     -0.39432457     1.4458947      0.37545916   
     14130   1.8325181     -0.38960506     1.4427298      0.38661542   
     14140   1.847036      -0.39953687     1.4473144      0.3776337    
     14150   1.8450381     -0.39319057     1.451663       0.38791995   
     14160   1.8538899     -0.40943319     1.4442713      0.35951852   
     14170   1.8483048     -0.39531784     1.4528021      0.38707992   
     14180   1.8550224     -0.39641515     1.4584217      0.38501567   
     14190   1.8626114     -0.39699944     1.4654257      0.38799195   
     14200   1.8719965     -0.40356113     1.4682482      0.37724398   
     14210   1.8753937     -0.39426495     1.4809412      0.39144442   
     14220   1.8768011     -0.39618049     1.4804329      0.38315491   
     14230   1.8761302     -0.3964709      1.4794717      0.38142586   
     14240   1.8834332     -0.39757314     1.4856717      0.38191912   
     14250   1.8923535     -0.39442064     1.4977436      0.38682716   
     14260   1.9060139     -0.39410324     1.5117201      0.38955476   
     14270   1.9064503     -0.38965947     1.5166002      0.40051044   
     14280   1.9138369     -0.39170861     1.5219369      0.38434213   
     14290   1.92148       -0.3915789      1.529709       0.38831686   
     14300   1.9194819     -0.38832649     1.5309634      0.39462485   
     14310   1.9232146     -0.39214319     1.5308791      0.39741967   
     14320   1.9311828     -0.39025034     1.5407393      0.40359625   
     14330   1.9313032     -0.39888421     1.5322259      0.38858106   
     14340   1.9214077     -0.39545421     1.5257614      0.3871632    
     14350   1.9184527     -0.39173116     1.5265297      0.3990408    
     14360   1.9244353     -0.39142026     1.5328226      0.4000973    
     14370   1.92415       -0.39671879     1.5272388      0.38858247   
     14380   1.9138765     -0.40137848     1.5123067      0.38360754   
     14390   1.9037173     -0.3984084      1.5051186      0.39642879   
     14400   1.8963333     -0.39465949     1.5014841      0.40134567   
     14410   1.8867476     -0.39225469     1.4943042      0.40930502   
     14420   1.891701      -0.39321403     1.4982978      0.39847074   
     14430   1.891116      -0.40207308     1.4888538      0.36955488   
     14440   1.8768048     -0.39329943     1.4833177      0.38525959   
     14450   1.8736349     -0.39256916     1.4808784      0.38884332   
     14460   1.8711372     -0.39702847     1.4739216      0.38216457   
     14470   1.8672702     -0.40682445     1.460259       0.36975725   
     14480   1.8519271     -0.4003053      1.4514366      0.37744228   
     14490   1.8499863     -0.40055796     1.4492433      0.37071439   
     14500   1.8562684     -0.40643947     1.4496433      0.3712548    
     14510   1.8501075     -0.40161288     1.4483096      0.38429674   
     14520   1.8475455     -0.39935062     1.4480101      0.38645783   
     14530   1.8385233     -0.39569899     1.4426405      0.39787284   
     14540   1.8490544     -0.40946465     1.4394048      0.37178426   
     14550   1.8542946     -0.40511605     1.4489931      0.38036092   
     14560   1.8488619     -0.40683083     1.4418462      0.38939441   
     14570   1.8455444     -0.40591246     1.4394474      0.40189135   
     14580   1.8536441     -0.40890382     1.4445549      0.39320678   
     14590   1.8496487     -0.4095241      1.4399397      0.37802442   
     14600   1.8454074     -0.40896191     1.4362609      0.37685473   
     14610   1.8460256     -0.41281295     1.433028       0.3663297    
     14620   1.8421609     -0.414187       1.4277896      0.36946651   
     14630   1.8447606     -0.40769043     1.4368857      0.38842389   
     14640   1.8454351     -0.41454081     1.4307098      0.37311      
     14650   1.8493739     -0.40893696     1.440252       0.37693142   
     14660   1.8603398     -0.41747624     1.4426775      0.3592373    
     14670   1.8552832     -0.40603133     1.4490664      0.38363098   
     14680   1.8601675     -0.39930738     1.4606741      0.39263605   
     14690   1.8662605     -0.41013816     1.4559357      0.36096191   
     14700   1.8694928     -0.4071643      1.4621416      0.36158373   
     14710   1.8667214     -0.39694629     1.4695884      0.39587321   
     14720   1.8766288     -0.3983587      1.4780824      0.39509319   
     14730   1.8880352     -0.40267285     1.4851736      0.3787631    
     14740   1.882096      -0.38965449     1.4922533      0.40472844   
     14750   1.8863717     -0.40292929     1.4832538      0.37718015   
     14760   1.8890063     -0.39018031     1.4986371      0.39386686   
     14770   1.8993747     -0.39190214     1.5072826      0.3837974    
     14780   1.9051005     -0.39135996     1.5135501      0.38481142   
     14790   1.903773      -0.3987249      1.5048577      0.36948398   
     14800   1.8998088     -0.38600977     1.513609       0.41066271   
     14810   1.8912551     -0.39251363     1.4985523      0.40373035   
     14820   1.8909406     -0.39891267     1.4918388      0.38323268   
     14830   1.8949043     -0.3939974      1.5007174      0.39779308   
     14840   1.8958199     -0.39679938     1.498831       0.38901759   
     14850   1.8947034     -0.39500731     1.4995067      0.39371233   
     14860   1.881962      -0.40353352     1.4782403      0.37156775   
     14870   1.8752224     -0.39360344     1.4814315      0.39192225   
     14880   1.8733595     -0.39868297     1.4744892      0.374308     
     14890   1.8676863     -0.40429197     1.4632075      0.36515064   
     14900   1.8486467     -0.38487792     1.4635839      0.40085646   
     14910   1.8526682     -0.40072692     1.451756       0.35677554   
     14920   1.8442887     -0.40156709     1.4425372      0.3526547    
     14930   1.8251715     -0.39557098     1.429418       0.36843064   
     14940   1.826063      -0.39364488     1.4322355      0.38715305   
     14950   1.8229643     -0.38893319     1.4338488      0.40662134   
     14960   1.8221192     -0.39609272     1.4258443      0.38301432   
     14970   1.8239542     -0.39164196     1.4321299      0.3897836    
     14980   1.8310692     -0.39872266     1.4321634      0.36296761   
     14990   1.8304104     -0.40542516     1.4248022      0.36169017   
     15000   1.8148411     -0.39318867     1.4214709      0.37871363   
     15010   1.8136756     -0.40176243     1.4117318      0.36464192   
     15020   1.8095886     -0.3956429      1.4137647      0.37910966   
     15030   1.8165547     -0.40622589     1.4101472      0.35519327   
     15040   1.8140378     -0.40041391     1.4134425      0.36949017   
     15050   1.8092678     -0.39115593     1.417931       0.39388702   
     15060   1.8070918     -0.39667382     1.4102373      0.38524927   
     15070   1.8124139     -0.39777992     1.4144527      0.36387192   
     15080   1.8121551     -0.38784037     1.4241335      0.39152818   
     15090   1.8243932     -0.39789254     1.4263182      0.36944346   
     15100   1.8295656     -0.39186269     1.43752        0.38785038   
     15110   1.8339696     -0.39286816     1.4409181      0.38108326   
     15120   1.8318361     -0.38829072     1.4433622      0.38778795   
     15130   1.8347232     -0.39007048     1.4444693      0.37250764   
     15140   1.828432      -0.39656286     1.4316863      0.35363288   
     15150   1.8317889     -0.39211563     1.4394901      0.37393475   
     15160   1.8420199     -0.38734235     1.4544933      0.38826233   
     15170   1.8559281     -0.3909326      1.4648099      0.3857044    
     15180   1.8688512     -0.39550997     1.4731543      0.37506827   
     15190   1.867215      -0.39980783     1.4672205      0.38023868   
     15200   1.8639533     -0.39869993     1.4650669      0.39392567   
     15210   1.8659379     -0.395796       1.4699553      0.38548017   
     15220   1.8554793     -0.39046313     1.4648306      0.39333709   
     15230   1.8624643     -0.39600318     1.4662749      0.3707878    
     15240   1.8533722     -0.37930349     1.4738834      0.40657228   
     15250   1.8540775     -0.39346571     1.4604264      0.3823618    
     15260   1.8600441     -0.40408169     1.4557764      0.3593021    
     15270   1.8512033     -0.38548901     1.4655292      0.39065163   
     15280   1.8606808     -0.38957771     1.4709171      0.37586176   
     15290   1.8529395     -0.38812338     1.4646308      0.37821672   
     15300   1.8486265     -0.39455754     1.4538841      0.36223185   
     15310   1.8464498     -0.3834802      1.462785       0.38866286   
     15320   1.8453054     -0.38948771     1.4556331      0.37756043   
     15330   1.8360591     -0.38748179     1.4483937      0.3846357    
     15340   1.8429368     -0.40163132     1.4411212      0.36163131   
     15350   1.8273862     -0.38605095     1.4411525      0.39452508   
     15360   1.8247869     -0.38907737     1.4355271      0.38961324   
     15370   1.8296241     -0.40348015     1.425961       0.36877531   
     15380   1.8153412     -0.4023421      1.4128176      0.36218965   
     15390   1.8085045     -0.3952664      1.4130572      0.39031598   
     15400   1.8021083     -0.39491108     1.407017       0.37451828   
     15410   1.815628      -0.39860667     1.4168398      0.3636756    
     15420   1.7998005     -0.39164713     1.4079734      0.37085499   
     15430   1.7971577     -0.39572936     1.4012487      0.36475902   
     15440   1.7982766     -0.39668783     1.401409       0.36090391   
     15450   1.8007391     -0.40214227     1.3984167      0.35029454   
     15460   1.8002116     -0.4029302      1.3971014      0.36189678   
     15470   1.7908133     -0.39254809     1.3980862      0.38061834   
     15480   1.786422      -0.38736563     1.3988778      0.38341873   
     15490   1.80283       -0.40185324     1.4007965      0.36096459   
     15500   1.8024683     -0.39873051     1.4035575      0.36641054   
     15510   1.7997793     -0.39569779     1.4039016      0.36478684   
     15520   1.8062607     -0.39517511     1.410905       0.36993505   
     15530   1.8167001     -0.40301089     1.4135076      0.35842752   
     15540   1.815669      -0.39802796     1.4174595      0.38088128   
     15550   1.808581      -0.38675355     1.4216466      0.40247155   
     15560   1.8134082     -0.38791517     1.4253117      0.40085813   
     15570   1.8178338     -0.40850774     1.4091443      0.35456324   
     15580   1.8256503     -0.40180158     1.4236662      0.37258925   
     15590   1.832424      -0.40365056     1.4285902      0.36129737   
     15600   1.8380318     -0.39202446     1.4458235      0.38151828   
     15610   1.8437461     -0.40183004     1.4417317      0.3615116    
     15620   1.8497815     -0.39785755     1.451739       0.3733231    
     15630   1.8541419     -0.39051293     1.4634436      0.38930328   
     15640   1.8664951     -0.39049633     1.4758121      0.39181665   
     15650   1.8633105     -0.4006093      1.4625149      0.37456418   
     15660   1.8517366     -0.38915639     1.4623951      0.38108848   
     15670   1.8498848     -0.38601158     1.4636882      0.38550026   
     15680   1.8521255     -0.40070762     1.4512327      0.35573562   
     15690   1.8405493     -0.38152429     1.4588409      0.3916926    
     15700   1.8464516     -0.39266485     1.4536021      0.37476103   
     15710   1.8494845     -0.39238232     1.4569172      0.38158811   
     15720   1.8576061     -0.38992565     1.4674947      0.3890194    
     15730   1.8532896     -0.39227677     1.4608275      0.39190228   
     15740   1.8516897     -0.3901437      1.4613609      0.39703018   
     15750   1.8526049     -0.39550934     1.4569103      0.37218968   
     15760   1.8449126     -0.39653231     1.4481958      0.36805141   
     15770   1.8317518     -0.39664122     1.4349274      0.3762752    
     15780   1.8284273     -0.39483985     1.4334046      0.37522491   
     15790   1.8326698     -0.4005679      1.4319186      0.37370392   
     15800   1.8263638     -0.39618978     1.4299914      0.38813502   
     15810   1.825714      -0.40196856     1.4235628      0.37783898   
     15820   1.8147763     -0.39606479     1.41853        0.38836286   
     15830   1.8162406     -0.40731827     1.4087407      0.35596091   
     15840   1.8107935     -0.40172605     1.4088863      0.37267006   
     15850   1.8045962     -0.39658237     1.4078333      0.37884597   
     15860   1.8005167     -0.40025825     1.4000784      0.36115191   
     15870   1.7931543     -0.39902888     1.3939461      0.37560299   
     15880   1.7811655     -0.40888445     1.3721029      0.36262789   
     15890   1.7625801     -0.40285798     1.3595458      0.3656813    
     15900   1.7677685     -0.4089354      1.3586563      0.35280012   
     15910   1.756163      -0.39677967     1.3592077      0.36942558   
     15920   1.7706027     -0.40234118     1.3680844      0.36312533   
     15930   1.7674965     -0.40072259     1.3665972      0.3723509    
     15940   1.7615893     -0.39512842     1.3662847      0.38004702   
     15950   1.7757422     -0.40845598     1.3671087      0.35649204   
     15960   1.7620413     -0.39716648     1.3646986      0.36958755   
     15970   1.7761308     -0.40309222     1.372861       0.35667695   
     15980   1.7859062     -0.40784647     1.3778811      0.35399184   
     15990   1.7818899     -0.40515326     1.3765584      0.35495076   
     16000   1.7856834     -0.39650022     1.3890046      0.38271533   
     16010   1.7879803     -0.40076736     1.3870341      0.37201494   
     16020   1.78046       -0.39735151     1.3829304      0.37199595   
     16030   1.7836164     -0.39787144     1.3855666      0.36646349   
     16040   1.7981517     -0.39964557     1.3983263      0.363179     
     16050   1.8071895     -0.40232037     1.4046884      0.35721461   
     16060   1.8115627     -0.39734106     1.4140405      0.37409031   
     16070   1.811207      -0.39849529     1.4125306      0.36598639   
     16080   1.8059521     -0.39232465     1.4134468      0.38697616   
     16090   1.8091739     -0.39614759     1.4128454      0.370025     
     16100   1.8135629     -0.40019999     1.4131816      0.36632329   
     16110   1.8162016     -0.3942047      1.4218153      0.38169305   
     16120   1.8207341     -0.39075621     1.4297958      0.36985174   
     16130   1.8249879     -0.39058876     1.4342167      0.36995689   
     16140   1.8327715     -0.39169759     1.4408906      0.36178328   
     16150   1.8346398     -0.39072634     1.44373        0.36742698   
     16160   1.8273139     -0.38578093     1.4413502      0.38694691   
     16170   1.8151651     -0.392206       1.4227776      0.38273956   
     16180   1.8276864     -0.38735604     1.4401475      0.38596547   
     16190   1.8230088     -0.38437289     1.4384536      0.39700817   
     16200   1.8171652     -0.39720042     1.419783       0.36330568   
     16210   1.8170562     -0.39510738     1.4217671      0.36293293   
     16220   1.809045      -0.38837468     1.4204894      0.37869382   
     16230   1.8138114     -0.39777449     1.4158555      0.36996119   
     16240   1.8085654     -0.39903597     1.4093486      0.36824647   
     16250   1.7937949     -0.383025       1.4105905      0.40999756   
     16260   1.7932029     -0.40071096     1.3923126      0.36414591   
     16270   1.7921112     -0.38976148     1.4021705      0.38834607   
     16280   1.7896037     -0.39415677     1.3952679      0.37524428   
     16290   1.7905757     -0.39781201     1.3925846      0.36592316   
     16300   1.7932496     -0.4044073      1.388663       0.34245832   
     16310   1.7744647     -0.39562162     1.3786656      0.36256017   
     16320   1.7634988     -0.39947069     1.3638518      0.36731475   
     16330   1.7594768     -0.39481794     1.3644829      0.3647838    
     16340   1.7597044     -0.40279771     1.3567307      0.35036812   
     16350   1.7643766     -0.40624875     1.3579515      0.36045489   
     16360   1.7470971     -0.40132984     1.3455926      0.36257661   
     16370   1.7490487     -0.40681889     1.3420549      0.35041739   
     16380   1.751715      -0.40949121     1.3420486      0.34310735   
     16390   1.743011      -0.40616073     1.336676       0.34808981   
     16400   1.7416114     -0.40788517     1.3335521      0.35057398   
     16410   1.7481208     -0.40780416     1.3401418      0.33870318   
     16420   1.746845      -0.40053223     1.3461381      0.36197399   
     16430   1.7461106     -0.40327403     1.342662       0.35669192   
     16440   1.7424353     -0.40062573     1.3416353      0.36096483   
     16450   1.7481775     -0.40234679     1.3456559      0.36544496   
     16460   1.7502425     -0.40299225     1.3470752      0.36162132   
     16470   1.7558916     -0.40516908     1.350547       0.35605548   
     16480   1.7652347     -0.40217529     1.3628829      0.3622572    
     16490   1.7745816     -0.41211404     1.3622902      0.34254263   
     16500   1.7765788     -0.41068315     1.365718       0.34719519   
     16510   1.7711767     -0.40553824     1.3654613      0.35945601   
     16520   1.7724726     -0.40150689     1.3707884      0.38065341   
     16530   1.7680007     -0.40083379     1.3669901      0.37444603   
     16540   1.7688013     -0.4084176      1.3602068      0.36412132   
     16550   1.7765311     -0.40669714     1.3696563      0.36848837   
     16560   1.7775154     -0.40116585     1.3761718      0.38260731   
     16570   1.794657      -0.39920878     1.3952688      0.37645665   
     16580   1.8083627     -0.40558265     1.4025992      0.36095393   
     16590   1.8141675     -0.40570196     1.4082841      0.35869626   
     16600   1.8101609     -0.3992076      1.4107723      0.37385799   
     16610   1.8068207     -0.40336809     1.403272       0.36986684   
     16620   1.7985178     -0.39371468     1.4046233      0.37875403   
     16630   1.8023855     -0.39868263     1.4035227      0.3674951    
     16640   1.816178      -0.39862276     1.4173736      0.35663118   
     16650   1.8130214     -0.39706523     1.4157749      0.36503484   
     16660   1.8157074     -0.39483991     1.4206859      0.37358808   
     16670   1.8214039     -0.39061309     1.4306086      0.38162286   
     16680   1.823869      -0.38740125     1.4362853      0.38561056   
     16690   1.8178633     -0.39422752     1.423454       0.36248263   
     16700   1.8159962     -0.39357123     1.4222433      0.36399553   
     16710   1.8140771     -0.39302563     1.42087        0.37796618   
     16720   1.8203841     -0.39971883     1.4204832      0.36790295   
     16730   1.8134743     -0.3955518      1.4177411      0.37235821   
     16740   1.8100952     -0.40633676     1.4035774      0.35767365   
     16750   1.796437      -0.39797947     1.3982779      0.37587464   
     16760   1.7945493     -0.39826364     1.3961062      0.36981212   
     16770   1.7952997     -0.40769431     1.3874259      0.35084701   
     16780   1.7883349     -0.40661123     1.3815448      0.34661422   
     16790   1.779209      -0.40269481     1.3763363      0.36020859   
     16800   1.7660065     -0.39820021     1.3676297      0.36154885   
     16810   1.7566675     -0.39549901     1.3609928      0.3670924    
     16820   1.7554772     -0.39814782     1.3571538      0.36566415   
     16830   1.7483001     -0.39417902     1.3539463      0.37858541   
     16840   1.7513296     -0.40122154     1.349933       0.36634792   
     16850   1.7559516     -0.40480085     1.3509751      0.36084803   
     16860   1.7760874     -0.41456365     1.3613461      0.3416767    
     16870   1.7599989     -0.40331099     1.3565119      0.36335084   
     16880   1.7574983     -0.40316251     1.35416        0.36256725   
     16890   1.7510697     -0.40126164     1.349633       0.35784763   
     16900   1.7486303     -0.40099445     1.3474609      0.36051111   
     16910   1.7505319     -0.4020665      1.3482903      0.37169637   
     16920   1.7483927     -0.3968577      1.3513602      0.37894591   
     16930   1.7629163     -0.40475753     1.3579824      0.36052271   
     16940   1.777312      -0.40665788     1.3704763      0.34826915   
     16950   1.7759376     -0.40961428     1.3661457      0.35088474   
     16960   1.7799123     -0.40939987     1.3703344      0.36746886   
     16970   1.788299      -0.4148827      1.3732375      0.35844762   
     16980   1.7764147     -0.3977225      1.3785145      0.37722436   
     16990   1.7918094     -0.41464886     1.3769814      0.35045442   
     17000   1.7835561     -0.40496605     1.3784117      0.37354212   
     17010   1.7729221     -0.40485459     1.3678902      0.37394545   
     17020   1.7749436     -0.40615061     1.3686155      0.36850702   
     17030   1.7746846     -0.40865164     1.3658555      0.3524139    
     17040   1.7787442     -0.40138273     1.3771836      0.36671335   
     17050   1.782167      -0.4070633      1.3749255      0.36423185   
     17060   1.7830003     -0.40717414     1.3756479      0.36432085   
     17070   1.793929      -0.40589388     1.3878557      0.36631777   
     17080   1.7946317     -0.40934422     1.385108       0.36478153   
     17090   1.7877259     -0.40424569     1.3833014      0.36597246   
     17100   1.7841204     -0.40581771     1.3781243      0.36262447   
     17110   1.786725      -0.40629936     1.380247       0.35715662   
     17120   1.7900001     -0.41344556     1.3763756      0.34509494   
     17130   1.7916521     -0.41108081     1.3803921      0.35805809   
     17140   1.7936401     -0.40330227     1.3901584      0.37861108   
     17150   1.7979086     -0.40483501     1.3928938      0.36915348   
     17160   1.7885054     -0.40746447     1.3808621      0.35637476   
     17170   1.7833956     -0.40546548     1.3777518      0.36645864   
     17180   1.7776822     -0.41060924     1.3668951      0.35198958   
     17190   1.7747372     -0.40924837     1.3653114      0.35838855   
     17200   1.7742315     -0.41001499     1.3640391      0.35244904   
     17210   1.7776652     -0.41627659     1.3612108      0.33971028   
     17220   1.7625226     -0.40845576     1.3538905      0.35953846   
     17230   1.760485      -0.40726859     1.3530403      0.36994704   
     17240   1.7659065     -0.40840939     1.3573206      0.36033582   
     17250   1.7592739     -0.4103625      1.3487355      0.35896921   
     17260   1.7653012     -0.41311439     1.3520103      0.35444736   
     17270   1.7622438     -0.4107074      1.3513602      0.34900494   
     17280   1.7535999     -0.40993569     1.3434888      0.35029739   
     17290   1.7515824     -0.41383581     1.3375714      0.34361345   
     17300   1.7502322     -0.41202908     1.3380281      0.3491       
     17310   1.74029       -0.40509156     1.3350244      0.36550557   
     17320   1.7369113     -0.41516744     1.3215702      0.34638583   
     17330   1.744286      -0.41316654     1.330945       0.35583201   
     17340   1.7541571     -0.41182252     1.3421592      0.3534752    
     17350   1.7597692     -0.41280567     1.3467876      0.35829239   
     17360   1.7530046     -0.41517045     1.3376589      0.34277205   
     17370   1.7531208     -0.41750438     1.3354411      0.34576853   
     17380   1.751953      -0.41301639     1.3387614      0.35377595   
     17390   1.7493412     -0.41420281     1.3349635      0.35660132   
     17400   1.7518246     -0.42068998     1.3309595      0.34664708   
     17410   1.7480891     -0.41230745     1.3356068      0.35889314   
     17420   1.7491279     -0.41591934     1.3330336      0.35385007   
     17430   1.7488301     -0.41087201     1.3377832      0.35769524   
     17440   1.7525284     -0.41057286     1.3417803      0.35772835   
     17450   1.7598396     -0.40505304     1.3546106      0.37080955   
     17460   1.7574642     -0.40814677     1.3491417      0.35700882   
     17470   1.7569416     -0.40556854     1.3511974      0.36583898   
     17480   1.7426354     -0.40028527     1.3421759      0.36913207   
     17490   1.7482782     -0.4006461      1.3474573      0.36698675   
     17500   1.7584362     -0.41037076     1.3478896      0.3559241    
     17510   1.7664889     -0.40874278     1.3575695      0.36224476   
     17520   1.7724476     -0.40051974     1.3717506      0.36653507   
     17530   1.7621093     -0.40115618     1.3607769      0.35564248   
     17540   1.7709904     -0.41008499     1.3607283      0.33925409   
     17550   1.7738505     -0.41153552     1.3621376      0.34278889   
     17560   1.7618601     -0.40266786     1.3590161      0.36799573   
     17570   1.7705618     -0.40589437     1.3644904      0.36117679   
     17580   1.7739377     -0.41027701     1.3634832      0.34909087   
     17590   1.7626309     -0.40002845     1.3624262      0.37416069   
     17600   1.7566301     -0.40451835     1.3519361      0.37580943   
     17610   1.7667717     -0.40372403     1.362871       0.36965302   
     17620   1.7688187     -0.40429449     1.3643473      0.36543613   
     17630   1.7623209     -0.40816938     1.3539753      0.35669354   
     17640   1.7534105     -0.40184635     1.3513888      0.36998699   
     17650   1.7473008     -0.40479547     1.3423306      0.36408395   
     17660   1.7503719     -0.41389849     1.3362984      0.35222526   
     17670   1.7453945     -0.40679907     1.3384209      0.36457419   
     17680   1.7463565     -0.4182737      1.3279082      0.3350927    
     17690   1.7321179     -0.40710127     1.3248435      0.35376835   
     17700   1.7264339     -0.40444148     1.3218197      0.35269889   
     17710   1.7273876     -0.40171776     1.3254971      0.35388978   
     17720   1.732545      -0.40212925     1.3302425      0.34714258   
     17730   1.7286949     -0.40485883     1.3236632      0.3432146    
     17740   1.7222587     -0.39936472     1.3227217      0.35886527   
     17750   1.7311543     -0.40656431     1.3244169      0.34883803   
     17760   1.7339686     -0.39923139     1.3345638      0.36148358   
     17770   1.7327701     -0.40770642     1.3248904      0.33560022   
     17780   1.7221456     -0.40200537     1.319968       0.35625366   
     17790   1.7185569     -0.39631965     1.3220654      0.36506589   
     17800   1.7256247     -0.40765241     1.3177997      0.35048048   
     17810   1.7258518     -0.4105041      1.3151751      0.33697589   
     17820   1.7216128     -0.40608323     1.3153574      0.35207777   
     17830   1.73384       -0.40156173     1.3321049      0.37466312   
     17840   1.7369772     -0.41283086     1.3239727      0.34320438   
     17850   1.7333319     -0.40938164     1.3237769      0.35652976   
     17860   1.7288454     -0.40896741     1.3197051      0.3543729    
     17870   1.7347899     -0.40033169     1.3342847      0.36761737   
     17880   1.735098      -0.40451591     1.3304086      0.35019      
     17890   1.744299      -0.4178425      1.3262821      0.32827515   
     17900   1.7354496     -0.40102704     1.334249       0.35265971   
     17910   1.7349186     -0.40476519     1.3299799      0.34725284   
     17920   1.7434173     -0.40186528     1.3413777      0.35318531   
     17930   1.7390811     -0.40254615     1.3363611      0.35532539   
     17940   1.7396123     -0.4068288      1.3326096      0.34113881   
     17950   1.7405866     -0.39764294     1.3427696      0.35400884   
     17960   1.7464018     -0.40441304     1.3418142      0.3472809    
     17970   1.745788      -0.39895931     1.3466541      0.36180882   
     17980   1.7445192     -0.40479957     1.3395452      0.34534342   
     17990   1.747751      -0.4071107      1.3404655      0.34891138   
     18000   1.7320907     -0.39328102     1.3386365      0.37820768   
     18010   1.7242437     -0.39621183     1.3278595      0.37932479   
     18020   1.7213544     -0.39652677     1.3246555      0.3636859    
     18030   1.7223239     -0.39607165     1.3260801      0.36644228   
     18040   1.7329443     -0.4032474      1.3295236      0.35113063   
     18050   1.7351161     -0.40366469     1.3312779      0.34753262   
     18060   1.7310721     -0.40203298     1.328866       0.33677633   
     18070   1.7172977     -0.39942976     1.3176962      0.35330961   
     18080   1.7206279     -0.4087435      1.3117123      0.33457885   
     18090   1.7091749     -0.3965703      1.3124337      0.36083422   
     18100   1.7205733     -0.41201748     1.3083838      0.34159114   
     18110   1.721737      -0.40111674     1.3204481      0.3659332    
     18120   1.7249319     -0.41067788     1.3140816      0.3430506    
     18130   1.7253536     -0.40831074     1.3168704      0.34591207   
     18140   1.7240952     -0.40587022     1.3180526      0.34543194   
     18150   1.7162177     -0.40284397     1.3132021      0.34402026   
     18160   1.7320615     -0.4104862      1.3214021      0.32892371   
     18170   1.7295157     -0.39392335     1.3354194      0.37159738   
     18180   1.7309752     -0.40975749     1.3210446      0.33184363   
     18190   1.720937      -0.41002832     1.3107365      0.33546574   
     18200   1.7153053     -0.40137324     1.3137605      0.3481907    
     18210   1.7085758     -0.40129791     1.307107       0.35722939   
     18220   1.6978843     -0.39968342     1.2980311      0.36279113   
     18230   1.7046295     -0.40615693     1.2983021      0.35202388   
     18240   1.7071039     -0.40444918     1.302484       0.35873531   
     18250   1.7055415     -0.40313932     1.3022317      0.3583705    
     18260   1.7114565     -0.41241485     1.2988705      0.34176948   
     18270   1.6947396     -0.40695957     1.2876106      0.33956415   
     18280   1.689387      -0.40122374     1.2879943      0.34365786   
     18290   1.6990214     -0.41154261     1.2873089      0.32173517   
     18300   1.702892      -0.40505718     1.2976645      0.34952003   
     18310   1.7093735     -0.40357552     1.305627       0.34930842   
     18320   1.7139458     -0.41696352     1.2968109      0.33766775   
     18330   1.7022005     -0.41220086     1.2898294      0.34028533   
     18340   1.6930098     -0.40070466     1.2921358      0.35500441   
     18350   1.7088991     -0.41340634     1.2953219      0.34227745   
     18360   1.7176977     -0.40920786     1.3083181      0.34868375   
     18370   1.7159512     -0.41486286     1.3009168      0.33738221   
     18380   1.7158928     -0.41168772     1.3040335      0.35421122   
     18390   1.7142316     -0.40664162     1.3074186      0.365745     
     18400   1.7178584     -0.40811715     1.3095694      0.35090413   
     18410   1.7186157     -0.40941843     1.3090254      0.34782202   
     18420   1.7178494     -0.4083355      1.3093421      0.35012407   
     18430   1.7225057     -0.41070843     1.311625       0.34755246   
     18440   1.7198024     -0.40949683     1.3101336      0.34915567   
     18450   1.730318      -0.40547975     1.3246652      0.36145057   
     18460   1.7322334     -0.40313774     1.3289224      0.36950962   
     18470   1.7282736     -0.4174903      1.3106105      0.34533269   
     18480   1.7188426     -0.4032189      1.3154518      0.36884764   
     18490   1.7250843     -0.413651       1.3112608      0.33734104   
     18500   1.7184399     -0.40967787     1.3085902      0.34504883   
     18510   1.7195193     -0.40687346     1.3124739      0.3550626    
     18520   1.7244258     -0.41089333     1.3133601      0.34474131   
     18530   1.7262996     -0.4106262      1.3155008      0.33649934   
     18540   1.7231414     -0.40936461     1.3136045      0.33908788   
     18550   1.7212824     -0.41056784     1.3105424      0.34044216   
     18560   1.7182692     -0.40829401     1.3098034      0.3471129    
     18570   1.7153467     -0.40408074     1.3110944      0.35781683   
     18580   1.7178831     -0.40922438     1.3084869      0.35528885   
     18590   1.7179564     -0.41705018     1.3007344      0.33760752   
     18600   1.715612      -0.40939677     1.3060437      0.34383241   
     18610   1.7155343     -0.41441371     1.300949       0.35201349   
     18620   1.7178028     -0.41635856     1.3012725      0.35346043   
     18630   1.7091329     -0.41063689     1.2983251      0.3608053    
     18640   1.7022433     -0.4141358      1.2879373      0.35009178   
     18650   1.704257      -0.40856098     1.2955256      0.36667358   
     18660   1.7075097     -0.41524925     1.2920897      0.35288324   
     18670   1.6966568     -0.4113518      1.2851354      0.35543902   
     18680   1.6902975     -0.41095663     1.2791718      0.34148069   
     18690   1.691844      -0.41712703     1.2745478      0.32742004   
     18700   1.6948184     -0.41074533     1.2839036      0.34864598   
     18710   1.6878529     -0.40342846     1.2842557      0.3617612    
     18720   1.6835005     -0.40376613     1.2795661      0.34919795   
     18730   1.6842409     -0.40491811     1.2791543      0.34792276   
     18740   1.6876813     -0.40009084     1.2874217      0.35051175   
     18750   1.6961603     -0.40319268     1.292798       0.34982055   
     18760   1.7001929     -0.40947837     1.2905445      0.33669757   
     18770   1.6936398     -0.40312721     1.2903432      0.34580481   
     18780   1.7009129     -0.40724119     1.2935016      0.34293685   
     18790   1.7018406     -0.41060789     1.2910626      0.3385813    
     18800   1.7050242     -0.40976452     1.2950892      0.340701     
     18810   1.6986846     -0.40643361     1.2920811      0.34221582   
     18820   1.7102678     -0.41084143     1.2992553      0.33780395   
     18830   1.7133193     -0.4108222      1.3023257      0.34557617   
     18840   1.705537      -0.40156302     1.3038034      0.36432717   
     18850   1.7010363     -0.40442681     1.2964394      0.35631116   
     18860   1.7020711     -0.41413095     1.28777        0.33413349   
     18870   1.7051475     -0.41292703     1.2920499      0.33691153   
     18880   1.7080263     -0.40202271     1.3058328      0.35369737   
     18890   1.7026047     -0.39956698     1.3028674      0.35981594   
     18900   1.7167396     -0.41605292     1.3005151      0.33133099   
     18910   1.7146182     -0.41387915     1.3005676      0.33526625   
     18920   1.7139157     -0.40871591     1.3050284      0.34916466   
     18930   1.7249182     -0.41121876     1.3135269      0.34710705   
     18940   1.7228994     -0.40796367     1.3147635      0.35611495   
     18950   1.7234437     -0.41190804     1.3113633      0.3469138    
     18960   1.7198199     -0.40454027     1.3151076      0.35706671   
     18970   1.7246888     -0.41054808     1.3139683      0.33804299   
     18980   1.718139      -0.40220491     1.3157623      0.35590841   
     18990   1.7319738     -0.41712691     1.3146737      0.33615464   
     19000   1.7269776     -0.41002494     1.31678        0.36647942   
     19010   1.7264221     -0.40732856     1.3189209      0.38143068   
     19020   1.7171266     -0.41289195     1.3040629      0.36052173   
     19030   1.7130854     -0.41624447     1.2966696      0.34864542   
     19040   1.7083811     -0.41334991     1.2948604      0.34822438   
     19050   1.7057369     -0.41844338     1.287123       0.32087046   
     19060   1.6867942     -0.40155675     1.2850688      0.35241785   
     19070   1.689527      -0.41056731     1.2787907      0.33555498   
     19080   1.6877336     -0.41527676     1.272288       0.34266125   
     19090   1.6932567     -0.41645038     1.276637       0.34842857   
     19100   1.6930041     -0.41366177     1.279173       0.34139973   
     19110   1.6851532     -0.40744578     1.2775389      0.34711677   
     19120   1.6832063     -0.40894147     1.2740965      0.34044601   
     19130   1.6777976     -0.41534426     1.2622856      0.32878761   
     19140   1.6766152     -0.41196094     1.2644866      0.33698053   
     19150   1.6822896     -0.41340784     1.2687135      0.33272722   
     19160   1.6768735     -0.41158355     1.2651223      0.33149802   
     19170   1.6742563     -0.40988863     1.2642002      0.32946796   
     19180   1.6737951     -0.41223785     1.2613899      0.3370832    
     19190   1.66578       -0.41291698     1.2526965      0.33100209   
     19200   1.6608472     -0.41202789     1.2486532      0.33563762   
     19210   1.6673481     -0.41163519     1.2555462      0.34275367   
     19220   1.6766616     -0.41205624     1.2644377      0.33092422   
     19230   1.6691674     -0.39809893     1.2709016      0.35824776   
     19240   1.6744662     -0.40999515     1.2643036      0.33588745   
     19250   1.6730475     -0.40890404     1.2639762      0.33741474   
     19260   1.6744695     -0.42300844     1.2512936      0.31913404   
     19270   1.6749122     -0.41872332     1.2560214      0.34329594   
     19280   1.6751558     -0.41202971     1.2629586      0.3539843    
     19290   1.6892532     -0.41538905     1.2736952      0.33456924   
     19300   1.6933271     -0.41112818     1.2820295      0.33769178   
     19310   1.6929473     -0.41366312     1.2791148      0.33231994   
     19320   1.684491      -0.40057588     1.2837466      0.36000205   
     19330   1.6846575     -0.40364365     1.2808454      0.34526644   
     19340   1.7003655     -0.41083156     1.2893639      0.33578991   
     19350   1.6988908     -0.40766146     1.2910595      0.34758937   
     19360   1.7090138     -0.40955934     1.2992836      0.35035565   
     19370   1.704539      -0.41457        1.2897985      0.33204541   
     19380   1.6962833     -0.4131442      1.2829695      0.33158969   
     19390   1.6803776     -0.40232064     1.2778889      0.34272827   
     19400   1.6782088     -0.40515539     1.2728856      0.34361388   
     19410   1.6704921     -0.40525839     1.2650667      0.3443809    
     19420   1.6708768     -0.410881       1.2598287      0.34608528   
     19430   1.6788297     -0.40558652     1.2730753      0.35573756   
     19440   1.6975804     -0.41397706     1.2834335      0.34171347   
     19450   1.7054013     -0.41803236     1.2871984      0.33652839   
     19460   1.690242      -0.40855658     1.2815164      0.35208453   
     19470   1.6792032     -0.41258158     1.2664537      0.34019813   
     19480   1.6777596     -0.41108887     1.2665029      0.33652615   
     19490   1.6771254     -0.41339473     1.263563       0.33324898   
     19500   1.6755012     -0.40869979     1.2666339      0.35057709   
     19510   1.6822837     -0.41367419     1.2684413      0.34503061   
     19520   1.6814159     -0.41109894     1.2701488      0.34138067   
     19530   1.6688548     -0.41157646     1.2571114      0.34307797   
     19540   1.6701161     -0.41799118     1.2519579      0.32750638   
     19550   1.6588063     -0.4050201      1.2536203      0.35611626   
     19560   1.6635178     -0.41263817     1.2507133      0.33654572   
     19570   1.6614146     -0.41525989     1.2459886      0.3323238    
     19580   1.6631172     -0.41655344     1.2463975      0.32614887   
     19590   1.6640707     -0.40953987     1.2543644      0.34136642   
     19600   1.6619698     -0.40257814     1.2592255      0.35797807   
     19610   1.668605      -0.41288378     1.2555544      0.3379979    
     19620   1.6538699     -0.41426315     1.2394413      0.32361949   
     19630   1.6485872     -0.40838525     1.2400371      0.33476726   
     19640   1.6533206     -0.40878246     1.2443729      0.33790328   
     19650   1.65669       -0.40427232     1.252252       0.34280183   
     19660   1.6684888     -0.41325932     1.2550627      0.33242933   
     19670   1.6507811     -0.39816648     1.2524495      0.35737132   
     19680   1.6512408     -0.41329843     1.2377772      0.3283041    
     19690   1.6442403     -0.41075173     1.2333241      0.32716521   
     19700   1.6517274     -0.41442007     1.2371422      0.31436336   
     19710   1.6544059     -0.40920246     1.245038       0.32587277   
     19720   1.652074      -0.40526064     1.2466481      0.33552626   
     19730   1.6572624     -0.40141881     1.2556778      0.34020158   
     19740   1.663072      -0.41663648     1.2462692      0.31615993   
     19750   1.6495327     -0.40729647     1.2420713      0.33731776   
     19760   1.645758      -0.41394595     1.2316475      0.33933043   
     19770   1.6423261     -0.41590472     1.2262571      0.32405511   
     19780   1.6460199     -0.41002409     1.2358312      0.33532304   
     19790   1.6579384     -0.41250812     1.2452645      0.33906277   
     19800   1.6575409     -0.410613       1.2467622      0.33987457   
     19810   1.6590964     -0.41001751     1.248913       0.33910574   
     19820   1.6637209     -0.41120305     1.2523515      0.34169595   
     19830   1.6706265     -0.41398243     1.256477       0.3394554    
     19840   1.669759      -0.40908719     1.2605049      0.34556768   
     19850   1.6678817     -0.41259142     1.2551235      0.33718102   
     19860   1.6733478     -0.41668646     1.256494       0.32636029   
     19870   1.6768378     -0.41493801     1.2617321      0.32847776   
     19880   1.6792874     -0.40840267     1.2707168      0.34464341   
     19890   1.6750009     -0.41437605     1.2604573      0.33357539   
     19900   1.6686024     -0.40382929     1.2646063      0.352706     
     19910   1.6669251     -0.40710941     1.259649       0.3626078    
     19920   1.6647005     -0.41177046     1.2527636      0.34832136   
     19930   1.673097      -0.41232918     1.2606005      0.33948292   
     19940   1.6721366     -0.40775274     1.2642167      0.34778246   
     19950   1.6658603     -0.40570725     1.2599865      0.3411258    
     19960   1.6609456     -0.40794639     1.2528331      0.33316461   
     19970   1.6480066     -0.40643049     1.2414113      0.32929509   
     19980   1.657539      -0.41371532     1.2436579      0.32169804   
     19990   1.6529235     -0.40948773     1.2432705      0.32830014   
     20000   1.647317      -0.40838331     1.2387689      0.33588887   
     20010   1.6317068     -0.40770943     1.2238342      0.32452228   
     20020   1.6227725     -0.40867197     1.2139383      0.32348583   
     20030   1.6245957     -0.40783489     1.2165984      0.33462527   
     20040   1.6323761     -0.41023662     1.2219762      0.32841065   
     20050   1.6381291     -0.41465503     1.2233102      0.32116802   
     20060   1.6392238     -0.41838006     1.2206798      0.31847833   
     20070   1.633681      -0.4206235      1.2128941      0.32522037   
     20080   1.6326618     -0.41777745     1.2147211      0.34118191   
     20090   1.6449786     -0.41970814     1.225106       0.33800214   
     20100   1.6530074     -0.41908225     1.2337598      0.32942418   
     20110   1.6561307     -0.41991821     1.2360469      0.31867447   
     20120   1.6501744     -0.4132071      1.2368023      0.32618363   
     20130   1.6462833     -0.40781785     1.2383008      0.33228153   
     20140   1.6480622     -0.40632075     1.2415767      0.33896044   
     20150   1.6519905     -0.41642395     1.2354013      0.32861167   
     20160   1.6573935     -0.41203524     1.2451925      0.34041494   
     20170   1.6599068     -0.4169529      1.2427879      0.33913838   
     20180   1.6534806     -0.41120693     1.2421083      0.34073602   
     20190   1.6501669     -0.41436369     1.2356382      0.33422955   
     20200   1.6533617     -0.41451546     1.2386809      0.33482555   
     20210   1.6589374     -0.42104207     1.2377295      0.32456186   
     20220   1.6605038     -0.41522756     1.2451102      0.33213007   
     20230   1.6549878     -0.40799141     1.2468309      0.34549959   
     20240   1.6535357     -0.41025821     1.2431122      0.33936714   
     20250   1.6666737     -0.41770739     1.2487997      0.33968031   
     20260   1.6619754     -0.40283189     1.2589774      0.36676694   
     20270   1.6739752     -0.41730115     1.2565067      0.32923965   
     20280   1.6719545     -0.41955778     1.2522295      0.31846931   
     20290   1.6611205     -0.41082227     1.2501321      0.33856755   
     20300   1.6642302     -0.41604405     1.2480198      0.33383629   
     20310   1.660182      -0.41675713     1.2432589      0.33098893   
     20320   1.6650761     -0.41003614     1.2548735      0.3411881    
     20330   1.6607348     -0.41631942     1.2442494      0.32533373   
     20340   1.6528547     -0.41037429     1.2423151      0.33701188   
     20350   1.651386      -0.41756613     1.2336547      0.32030609   
     20360   1.6569754     -0.42242466     1.2343851      0.31945544   
     20370   1.6557441     -0.41438879     1.2411897      0.34126033   
     20380   1.6491257     -0.41524975     1.233711       0.34338438   
     20390   1.6422005     -0.41339296     1.2286433      0.33783665   
     20400   1.6473939     -0.41626852     1.2309606      0.33560308   
     20410   1.648978      -0.42599136     1.2228217      0.32076224   
     20420   1.6434146     -0.41679336     1.2264569      0.33394291   
     20430   1.6512047     -0.42017184     1.2308677      0.32502537   
     20440   1.6409704     -0.41184016     1.2289661      0.34164263   
     20450   1.6402996     -0.41062577     1.2295098      0.34214072   
     20460   1.6366309     -0.41815728     1.21831        0.32005943   
     20470   1.6352799     -0.42334796     1.2117684      0.31317622   
     20480   1.6411886     -0.42648265     1.2145418      0.30318216   
     20490   1.6439083     -0.42275027     1.2209937      0.32424807   
     20500   1.6390049     -0.42162212     1.2172188      0.33380269   
     20510   1.6299181     -0.41592163     1.2138335      0.34869216   
     20520   1.6240717     -0.42081886     1.2030904      0.3291243    
     20530   1.6270494     -0.42066246     1.2062243      0.32900317   
     20540   1.6236811     -0.42390012     1.1996186      0.31962148   
     20550   1.6243556     -0.41427933     1.2099138      0.33859744   
     20560   1.6230905     -0.4190968      1.2038314      0.32742348   
     20570   1.6223047     -0.41614762     1.2059949      0.33775152   
     20580   1.6197824     -0.42282989     1.1967905      0.32862414   
     20590   1.6214604     -0.41894532     1.202353       0.33217759   
     20600   1.620468      -0.41957871     1.2007273      0.33263006   
     20610   1.6137412     -0.42454395     1.1890359      0.33036411   
     20620   1.6166184     -0.42220312     1.1942536      0.32778363   
     20630   1.6239304     -0.42116501     1.202603       0.33223444   
     20640   1.6320167     -0.41724        1.2146135      0.3391231    
     20650   1.6429524     -0.41440743     1.2283806      0.33536519   
     20660   1.6501641     -0.4199165      1.2300826      0.32556737   
     20670   1.6500798     -0.4211373      1.2287775      0.33021721   
     20680   1.639283      -0.41080586     1.2283132      0.34136959   
     20690   1.6420339     -0.41817927     1.2236904      0.32535318   
     20700   1.6456639     -0.41780928     1.2276901      0.33643458   
     20710   1.6465918     -0.41603756     1.2303896      0.3352011    
     20720   1.6531372     -0.42477379     1.2281981      0.32190858   
     20730   1.6493891     -0.41980373     1.2294205      0.34546052   
     20740   1.6507772     -0.4201934      1.2304187      0.34589443   
     20750   1.6596033     -0.41676057     1.2426768      0.3497746    
     20760   1.6579485     -0.41784896     1.2399337      0.34024595   
     20770   1.6537491     -0.4182364      1.2353473      0.34183945   
     20780   1.6548323     -0.42242819     1.2322386      0.32599579   
     20790   1.6541292     -0.42048601     1.2334778      0.32802225   
     20800   1.6455345     -0.41810581     1.2272641      0.3346586    
     20810   1.6401983     -0.42881514     1.2112191      0.3080293    
     20820   1.6341236     -0.42027487     1.2136853      0.32635308   
     20830   1.6367748     -0.4262454      1.2103657      0.31357668   
     20840   1.6396728     -0.41703112     1.2224777      0.33196645   
     20850   1.6364791     -0.41370613     1.2226093      0.33559642   
     20860   1.6335872     -0.42149744     1.2119264      0.3254674    
     20870   1.6258655     -0.41368496     1.2120179      0.32877563   
     20880   1.6328358     -0.41928262     1.2133899      0.3146217    
     20890   1.6276146     -0.41502498     1.2124269      0.3148078    
     20900   1.6291622     -0.41428401     1.2147152      0.31696751   
     20910   1.6344694     -0.41688876     1.2174172      0.32777018   
     20920   1.6286219     -0.41367944     1.2147796      0.33491576   
     20930   1.6124397     -0.415034       1.1972444      0.32768717   
     20940   1.6101185     -0.41865982     1.1912977      0.32787653   
     20950   1.6015742     -0.41659078     1.1848233      0.33140355   
     20960   1.6040863     -0.42229176     1.1816341      0.32155142   
     20970   1.6085166     -0.422064       1.1862918      0.33196333   
     20980   1.6138289     -0.42418259     1.1894849      0.31779804   
     20990   1.6141942     -0.41609384     1.197939       0.32894398   
     21000   1.6092117     -0.41696653     1.1920843      0.33358993   
     21010   1.6097055     -0.4266443      1.1829003      0.31655979   
     21020   1.6112764     -0.42897143     1.1821439      0.31874052   
     21030   1.6006604     -0.42027112     1.1802292      0.33097746   
     21040   1.5912563     -0.41899292     1.1721043      0.3334831    
     21050   1.5963316     -0.42087657     1.1752954      0.32056738   
     21060   1.6002538     -0.42127575     1.178818       0.32381802   
     21070   1.6045557     -0.42377589     1.1806193      0.31572578   
     21080   1.6022558     -0.41749503     1.1846006      0.32606529   
     21090   1.6009037     -0.42154028     1.1792033      0.32743493   
     21100   1.6028849     -0.42733846     1.1753862      0.31764513   
     21110   1.6019387     -0.41301649     1.188762       0.33317619   
     21120   1.6139814     -0.42121051     1.1926094      0.31283698   
     21130   1.6093059     -0.4171637      1.1919813      0.31957467   
     21140   1.6115635     -0.41486306     1.1965393      0.3300389    
     21150   1.6133908     -0.41892519     1.1943043      0.32392943   
     21160   1.6192154     -0.41496562     1.2040879      0.33173625   
     21170   1.6235126     -0.41198369     1.2113666      0.33172588   
     21180   1.6333416     -0.41163569     1.2215426      0.3247458    
     21190   1.6399772     -0.4173204      1.2224928      0.32360181   
     21200   1.6363342     -0.42305298     1.2131175      0.31788947   
     21210   1.6213507     -0.42170608     1.1994825      0.32154744   
     21220   1.6065745     -0.42044297     1.1859709      0.33359366   
     21230   1.6048382     -0.41704246     1.1876352      0.33750705   
     21240   1.6018244     -0.41352178     1.1881424      0.33499145   
     21250   1.6006689     -0.42018965     1.1803191      0.31909992   
     21260   1.6050485     -0.41034435     1.1945436      0.32879437   
     21270   1.6163842     -0.42098573     1.1952368      0.31978441   
     21280   1.6109088     -0.42151478     1.1892329      0.31877563   
     21290   1.6022861     -0.41654091     1.1855849      0.32294702   
     21300   1.6073884     -0.42242943     1.1847982      0.3128615    
     21310   1.6053026     -0.42582046     1.1793216      0.30546482   
     21320   1.6012277     -0.41661924     1.1844484      0.32523035   
     21330   1.5884834     -0.40828857     1.180036       0.34053349   
     21340   1.5939867     -0.41729103     1.1765363      0.33015764   
     21350   1.587417      -0.41606246     1.1711958      0.32530578   
     21360   1.5819149     -0.41519594     1.1665607      0.31363755   
     21370   1.5755605     -0.41201982     1.1633832      0.32309315   
     21380   1.5775895     -0.42201764     1.1554141      0.3055036    
     21390   1.5763292     -0.40978712     1.1663845      0.32362327   
     21400   1.579089      -0.41073714     1.168194       0.32663185   
     21410   1.5791887     -0.42190262     1.1571282      0.30369646   
     21420   1.5759616     -0.41236423     1.1634397      0.33208677   
     21430   1.5720142     -0.42297781     1.1488792      0.30526305   
     21440   1.5645163     -0.42299104     1.1413688      0.31155923   
     21450   1.5555784     -0.41163736     1.1437855      0.33372547   
     21460   1.5630586     -0.42018494     1.1427173      0.31630808   
     21470   1.5686597     -0.41379446     1.1547083      0.32689837   
     21480   1.5706455     -0.42096031     1.1495281      0.30829854   
     21490   1.5704        -0.4158819      1.154361       0.31766984   
     21500   1.5774981     -0.42075331     1.156587       0.31976144   
     21510   1.5800222     -0.42010639     1.1597578      0.321046     
     21520   1.5859315     -0.41883713     1.1669358      0.31790664   
     21530   1.5750194     -0.41639225     1.1584696      0.32284087   
     21540   1.5677439     -0.40926832     1.1583189      0.33318306   
     21550   1.5774514     -0.41946868     1.157825       0.31498144   
     21560   1.5745273     -0.41423037     1.1601394      0.33140085   
     21570   1.5770639     -0.4152884      1.1616178      0.32782333   
     21580   1.5834254     -0.4127225      1.1705446      0.32807276   
     21590   1.5905852     -0.40951599     1.1809101      0.33012857   
     21600   1.6038261     -0.42703987     1.1766258      0.29851825   
     21610   1.5977643     -0.40942026     1.1881843      0.34707178   
     21620   1.598049      -0.41838706     1.1795022      0.3199439    
     21630   1.596083      -0.42362581     1.1722976      0.30548684   
     21640   1.5929407     -0.415667       1.1771144      0.3311948    
     21650   1.5919755     -0.4173849      1.1744314      0.32357839   
     21660   1.5935187     -0.41825655     1.1751028      0.32191259   
     21670   1.5911938     -0.41451017     1.1765246      0.33410127   
     21680   1.597042      -0.418468       1.1784143      0.32007478   
     21690   1.5881742     -0.41558571     1.1724297      0.32085954   
     21700   1.5920424     -0.41821858     1.1736646      0.32919174   
     21710   1.5947186     -0.41788016     1.176679       0.33057707   
     21720   1.5923202     -0.41835123     1.1738098      0.32039797   
     21730   1.5975559     -0.42512053     1.1722756      0.31059127   
     21740   1.5986732     -0.42261693     1.1758964      0.32145612   
     21750   1.5922336     -0.42373189     1.1683425      0.30758693   
     21760   1.575806      -0.41823025     1.1574182      0.31812156   
     21770   1.5790071     -0.42392665     1.1549226      0.31252772   
     21780   1.5777674     -0.42041079     1.1571988      0.31735486   
     21790   1.5783077     -0.41698216     1.1611677      0.32773717   
     21800   1.5675201     -0.41229002     1.1550734      0.32726463   
     21810   1.5744829     -0.42007055     1.1542549      0.31541369   
     21820   1.572552      -0.41273605     1.1596586      0.33166359   
     21830   1.5742181     -0.41395529     1.1601054      0.32448809   
     21840   1.5765563     -0.42357636     1.1528223      0.29862289   
     21850   1.5684162     -0.41384041     1.1544189      0.32185239   
     21860   1.5630498     -0.41745124     1.1454422      0.31457247   
     21870   1.5623965     -0.42247397     1.1397662      0.3051168    
     21880   1.5650935     -0.41738099     1.147556       0.31410394   
     21890   1.5675649     -0.41869584     1.1487123      0.3122178    
     21900   1.5656289     -0.42105351     1.1444188      0.3123539    
     21910   1.5694312     -0.4189689      1.1503053      0.31231515   
     21920   1.5734299     -0.42435335     1.1489192      0.30334569   
     21930   1.5607208     -0.42255225     1.1380125      0.30528896   
     21940   1.5691097     -0.42300318     1.1459496      0.31637918   
     21950   1.5818347     -0.42543599     1.1562405      0.31689988   
     21960   1.5738156     -0.41661479     1.1570434      0.32472114   
     21970   1.5851599     -0.42040207     1.1645993      0.32523271   
     21980   1.5893538     -0.4209887      1.1682062      0.32500353   
     21990   1.5964174     -0.42855858     1.1676992      0.3037539    
     22000   1.587955      -0.41843763     1.1693586      0.3208483    
     22010   1.5882244     -0.41772959     1.170336       0.33533668   
     22020   1.5945415     -0.42658845     1.1677936      0.31104884   
     22030   1.5936468     -0.42430504     1.1691824      0.30620716   
     22040   1.5934155     -0.423151       1.1701052      0.30481416   
     22050   1.5945717     -0.42518766     1.1692246      0.30568493   
     22060   1.5774773     -0.41795608     1.1593634      0.32380097   
     22070   1.5760268     -0.4225259      1.1533433      0.32170273   
     22080   1.5783665     -0.42007984     1.1581289      0.32747413   
     22090   1.5791158     -0.42515582     1.1538021      0.31851411   
     22100   1.5677756     -0.41366456     1.1539542      0.33271417   
     22110   1.5727073     -0.42276041     1.1497896      0.31469852   
     22120   1.5723037     -0.42405636     1.1480901      0.31163799   
     22130   1.5683284     -0.41782661     1.150345       0.32944799   
     22140   1.5695212     -0.42399591     1.1453684      0.32186551   
     22150   1.5721343     -0.42409768     1.1478794      0.31696161   
     22160   1.5688869     -0.42254006     1.14619        0.32036538   
     22170   1.5686405     -0.42362562     1.144858       0.31716191   
     22180   1.5675606     -0.41978348     1.1476204      0.31550163   
     22190   1.5558323     -0.42219614     1.1334805      0.30439378   
     22200   1.5567419     -0.4209113      1.1356749      0.30830412   
     22210   1.5567762     -0.41681005     1.1398105      0.32071645   
     22220   1.5611046     -0.42327021     1.1376783      0.31335616   
     22230   1.5606398     -0.42384018     1.1366435      0.31678287   
     22240   1.5588073     -0.4229617      1.1356897      0.32486215   
     22250   1.5615669     -0.42693342     1.1344773      0.3139603    
     22260   1.5705643     -0.4272366      1.1431706      0.31777998   
     22270   1.5701934     -0.42720644     1.14283        0.32011398   
     22280   1.5610014     -0.42422133     1.136624       0.32043184   
     22290   1.555238      -0.4291648      1.1259177      0.30404665   
     22300   1.5525781     -0.42146975     1.1309531      0.31688731   
     22310   1.5537705     -0.41869282     1.1349223      0.32270483   
     22320   1.5546312     -0.42409721     1.1303785      0.30608468   
     22330   1.5510783     -0.42509439     1.1258288      0.30287287   
     22340   1.5543453     -0.43119199     1.1229979      0.29985007   
     22350   1.5578328     -0.43120821     1.1264688      0.29763186   
     22360   1.5486419     -0.41939276     1.1290943      0.31484024   
     22370   1.5534549     -0.42462529     1.1286743      0.31459069   
     22380   1.5605535     -0.41799573     1.1424017      0.32549686   
     22390   1.5694949     -0.42845677     1.1408812      0.30832632   
     22400   1.5696995     -0.42604951     1.143493       0.31431875   
     22410   1.5670267     -0.4191037      1.1477663      0.32300292   
     22420   1.571032      -0.42409058     1.1467843      0.31784911   
     22430   1.5688105     -0.42647144     1.1421821      0.30766902   
     22440   1.5754525     -0.42500535     1.1502896      0.31874161   
     22450   1.566726      -0.42223691     1.1443324      0.31078464   
     22460   1.5677346     -0.42617898     1.1413989      0.31164183   
     22470   1.5657395     -0.42291942     1.1426635      0.32332285   
     22480   1.5714759     -0.43201591     1.1393028      0.31065449   
     22490   1.5683602     -0.42580868     1.1423947      0.31766444   
     22500   1.5606039     -0.41701804     1.1434298      0.33175406   
     22510   1.5656334     -0.42919849     1.1362783      0.31027934   
     22520   1.5692758     -0.43017135     1.1389475      0.3137853    
     22530   1.5713274     -0.42744114     1.1437291      0.30531492   
     22540   1.5744723     -0.41893387     1.1553809      0.31354097   
     22550   1.56966       -0.41314446     1.1563585      0.32939486   
     22560   1.567241      -0.42332819     1.1437561      0.30074488   
     22570   1.56191       -0.42502815     1.1367257      0.30421122   
     22580   1.5596798     -0.41331242     1.1462114      0.33427487   
     22590   1.5678385     -0.41835078     1.149331       0.32292335   
     22600   1.5716765     -0.41709831     1.154421       0.32418255   
     22610   1.5727747     -0.41831094     1.1543065      0.31726515   
     22620   1.5628324     -0.42445087     1.1382253      0.30010045   
     22630   1.5574848     -0.4184611      1.138868       0.31187991   
     22640   1.5448314     -0.42052826     1.1241486      0.31349542   
     22650   1.5419423     -0.42282307     1.118965       0.3116389    
     22660   1.5473974     -0.4275718      1.1196708      0.31113064   
     22670   1.548376      -0.42401389     1.1242073      0.31823394   
     22680   1.5455976     -0.42938314     1.1160599      0.30762676   
     22690   1.5351311     -0.4255274      1.1094502      0.3096152    
     22700   1.536796      -0.42541072     1.1112316      0.31247756   
     22710   1.5381625     -0.41933506     1.1186736      0.31773055   
     22720   1.5394156     -0.42056555     1.1186961      0.30065224   
     22730   1.54732       -0.42704764     1.1201176      0.30189321   
     22740   1.5393317     -0.42219562     1.1169822      0.31397939   
     22750   1.5404073     -0.42734703     1.1129062      0.29771568   
     22760   1.5294052     -0.42398932     1.105263       0.30362347   
     22770   1.533088      -0.42303986     1.1098949      0.30704402   
     22780   1.5348156     -0.42550776     1.1091543      0.30436606   
     22790   1.5344667     -0.42478723     1.109526       0.31042437   
     22800   1.5319702     -0.41732153     1.1144955      0.32437466   
     22810   1.5428664     -0.42321565     1.1194965      0.31946217   
     22820   1.5447277     -0.42942075     1.1151524      0.29631065   
     22830   1.5505871     -0.43110787     1.1193242      0.28606711   
     22840   1.5473139     -0.42802708     1.119132       0.30105242   
     22850   1.5537531     -0.42583479     1.127763       0.31439724   
     22860   1.5568772     -0.42412936     1.1325922      0.32504652   
     22870   1.5576262     -0.4245452      1.1329252      0.32664798   
     22880   1.5610856     -0.43172459     1.1292049      0.2991655    
     22890   1.5579824     -0.43470322     1.1231234      0.29971415   
     22900   1.548939      -0.42462711     1.124157       0.3195179    
     22910   1.5517888     -0.42309327     1.1285403      0.32114654   
     22920   1.5568223     -0.43145606     1.1252106      0.3058109    
     22930   1.5543198     -0.42890989     1.1252545      0.30969262   
     22940   1.5603848     -0.43483358     1.1253952      0.30282441   
     22950   1.5621162     -0.43122952     1.1307305      0.30886187   
     22960   1.5575691     -0.42272767     1.1346856      0.33197274   
     22970   1.5645919     -0.43657754     1.1278579      0.31075006   
     22980   1.5554217     -0.44145936     1.1138068      0.29769471   
     22990   1.5532604     -0.43451754     1.1185875      0.30594217   
     23000   1.5550537     -0.43080982     1.1240884      0.31476433   
     23010   1.5578305     -0.43232468     1.1253501      0.31976348   
     23020   1.5528964     -0.4381861      1.114555       0.30824192   
     23030   1.5398852     -0.4337881      1.1059432      0.30803246   
     23040   1.5482867     -0.43850486     1.109627       0.29832139   
     23050   1.5444986     -0.43265592     1.1116882      0.30721545   
     23060   1.5321289     -0.42570832     1.1062674      0.31963327   
     23070   1.5361847     -0.431451       1.1045801      0.31532117   
     23080   1.5282136     -0.42695311     1.1011077      0.32152059   
     23090   1.524828      -0.43030933     1.0943662      0.30814801   
     23100   1.5337527     -0.43050378     1.1030956      0.31523067   
     23110   1.5348146     -0.43067482     1.1039863      0.32050196   
     23120   1.5339287     -0.43130163     1.1024737      0.30802856   
     23130   1.5284635     -0.42586301     1.1024476      0.31557366   
     23140   1.5282534     -0.43169715     1.0964034      0.3036514    
     23150   1.5208491     -0.42820857     1.0924885      0.31286255   
     23160   1.5188583     -0.43200033     1.0867061      0.30242583   
     23170   1.5203914     -0.43348035     1.086759       0.30265937   
     23180   1.5318203     -0.43428688     1.0973803      0.30821373   
     23190   1.53535       -0.43643958     1.0987569      0.30186639   
     23200   1.5234511     -0.43498323     1.0883156      0.30304621   
     23210   1.5203533     -0.43962126     1.08058        0.29394558   
     23220   1.5260764     -0.43671372     1.0892101      0.30313685   
     23230   1.5257308     -0.43083831     1.09474        0.31009964   
     23240   1.5307199     -0.4351037      1.0954632      0.30076297   
     23250   1.5274925     -0.43057842     1.0967613      0.31930171   
     23260   1.5277996     -0.43369214     1.0939547      0.31102549   
     23270   1.5341232     -0.43210596     1.1018639      0.30915515   
     23280   1.5400098     -0.43677697     1.1030788      0.28764579   
     23290   1.5314822     -0.42546431     1.1058647      0.30348201   
     23300   1.5328047     -0.42946155     1.1031899      0.29961959   
     23310   1.5264434     -0.42113771     1.1051531      0.31559659   
     23320   1.5269663     -0.42683345     1.0999802      0.29590439   
     23330   1.5289748     -0.42911434     1.0997076      0.29427081   
     23340   1.5229054     -0.4235493      1.0992038      0.30483102   
     23350   1.5194849     -0.41539134     1.1039417      0.32045118   
     23360   1.5292312     -0.41924409     1.1098342      0.30808396   
     23370   1.5314096     -0.41777893     1.1134775      0.31627847   
     23380   1.5298611     -0.41836326     1.1113449      0.3169714    
     23390   1.5295527     -0.42658531     1.1028145      0.30735769   
     23400   1.5266052     -0.42886106     1.0975915      0.30500123   
     23410   1.5263502     -0.42538841     1.1008092      0.31705427   
     23420   1.5264766     -0.42407728     1.1022466      0.31840791   
     23430   1.5220605     -0.42589208     1.0960162      0.31199686   
     23440   1.5245726     -0.42826121     1.0961589      0.29779886   
     23450   1.5145817     -0.41838272     1.0960475      0.31092424   
     23460   1.5139587     -0.42333177     1.0904755      0.31237389   
     23470   1.5126595     -0.42911929     1.083389       0.30693532   
     23480   1.5091496     -0.42883723     1.0801615      0.30017049   
     23490   1.5069175     -0.4263894      1.0803774      0.29828291   
     23500   1.5212026     -0.42666012     1.0943904      0.30261259   
     23510   1.5289001     -0.42574042     1.1030068      0.29794274   
     23520   1.5220561     -0.42440205     1.0975019      0.29706712   
     23530   1.5120054     -0.41807752     1.0937767      0.31468904   
     23540   1.5057152     -0.42256359     1.083001       0.30934635   
     23550   1.5022607     -0.41651488     1.0855956      0.30888569   
     23560   1.5004019     -0.4210242      1.0792276      0.29716224   
     23570   1.4976652     -0.41934369     1.0781717      0.30902809   
     23580   1.4923482     -0.41612432     1.0760747      0.31132267   
     23590   1.5049165     -0.42736328     1.0774027      0.29164279   
     23600   1.4985678     -0.41794054     1.0804774      0.30923765   
     23610   1.5007141     -0.42316111     1.077403       0.30689589   
     23620   1.4937115     -0.42630349     1.0672586      0.30503151   
     23630   1.4923822     -0.42029458     1.0719384      0.31418722   
     23640   1.5006962     -0.42734876     1.0731974      0.30136888   
     23650   1.4999104     -0.42949301     1.0702674      0.29955132   
     23660   1.4983241     -0.43064623     1.067528       0.28852754   
     23670   1.5021658     -0.42211781     1.0798978      0.31055964   
     23680   1.5089057     -0.42803201     1.0807227      0.29318243   
     23690   1.5040806     -0.42437551     1.0795547      0.30695792   
     23700   1.5056031     -0.42208634     1.0833662      0.29892578   
     23710   1.5076951     -0.42684865     1.0806957      0.29073104   
     23720   1.5146995     -0.42365022     1.0908978      0.29994534   
     23730   1.521476      -0.4336997      1.0876242      0.2920835    
     23740   1.5164827     -0.42504018     1.0912908      0.30864084   
     23750   1.5141432     -0.43085761     1.0831342      0.29223621   
     23760   1.509859      -0.4270045      1.0827035      0.30001651   
     23770   1.5137454     -0.43318588     1.0804081      0.28986754   
     23780   1.5076692     -0.42075784     1.0867606      0.31732128   
     23790   1.5054351     -0.42025315     1.0850314      0.31118196   
     23800   1.5156991     -0.43579618     1.0797514      0.27810881   
     23810   1.5107853     -0.42454805     1.0860862      0.29858248   
     23820   1.5213515     -0.43239079     1.0888085      0.28959426   
     23830   1.5195374     -0.42347712     1.0959083      0.30727072   
     23840   1.5215328     -0.42615205     1.0952286      0.29876292   
     23850   1.5164482     -0.4278597      1.0884368      0.29604177   
     23860   1.5054038     -0.42807658     1.0771767      0.29315996   
     23870   1.4936821     -0.41974686     1.0737859      0.31412403   
     23880   1.5057962     -0.4304233      1.0752224      0.28562425   
     23890   1.511847      -0.42709119     1.0846046      0.28941861   
     23900   1.513783      -0.42958039     1.0840512      0.29570949   
     23910   1.5098348     -0.43258205     1.0771017      0.29351284   
     23920   1.5070622     -0.42737977     1.0795317      0.29266561   
     23930   1.5176432     -0.43508915     1.0824023      0.28728514   
     23940   1.5152445     -0.42377189     1.0913211      0.30589109   
     23950   1.5125398     -0.42916836     1.0832202      0.29626444   
     23960   1.5098475     -0.42898089     1.0807156      0.29580871   
     23970   1.5077153     -0.42417207     1.0833925      0.30452199   
     23980   1.511636      -0.43160725     1.0798776      0.28701637   
     23990   1.5153969     -0.4267945      1.0884508      0.29920497   
     24000   1.521994      -0.43045551     1.0913862      0.28383854   
     24010   1.5128184     -0.43319011     1.079477       0.28834654   
     24020   1.5051516     -0.43410623     1.0708949      0.29027523   
     24030   1.4950772     -0.42793039     1.0669973      0.30119221   
     24040   1.4905654     -0.42999953     1.0604168      0.30322334   
     24050   1.4983887     -0.43049255     1.0677463      0.29339003   
     24060   1.4958996     -0.42637772     1.0693723      0.29186814   
     24070   1.4923596     -0.42887354     1.0633368      0.28682113   
     24080   1.4968827     -0.42883236     1.0679007      0.29542528   
     24090   1.4982646     -0.42865652     1.0694582      0.30076239   
     24100   1.4944744     -0.42570106     1.0686239      0.31783423   
     24110   1.4991237     -0.43844548     1.0605283      0.28931918   
     24120   1.4938829     -0.43564295     1.0580905      0.28888602   
     24130   1.4951921     -0.43536093     1.0596817      0.29532914   
     24140   1.4950421     -0.43015189     1.0647407      0.30678719   
     24150   1.4972173     -0.43926067     1.0578069      0.28998612   
     24160   1.4868302     -0.43677363     1.0499079      0.30179901   
     24170   1.4864103     -0.43695719     1.0493045      0.30015688   
     24180   1.4915843     -0.44075554     1.0506796      0.29283339   
     24190   1.4936222     -0.44312714     1.0503457      0.27906459   
     24200   1.5009884     -0.43941737     1.0614209      0.29019385   
     24210   1.5085758     -0.44562308     1.0628018      0.28903827   
     24220   1.5033479     -0.44013335     1.0630642      0.30566798   
     24230   1.5072329     -0.44325491     1.0638273      0.30265772   
     24240   1.5079462     -0.44016016     1.0676353      0.29715064   
     24250   1.5023156     -0.43850911     1.0636563      0.29287622   
     24260   1.4972358     -0.44005055     1.0570355      0.29205474   
     24270   1.5010663     -0.43247601     1.0684401      0.30913436   
     24280   1.5035896     -0.43852789     1.0649114      0.29482703   
     24290   1.5069192     -0.43209469     1.0746738      0.30107746   
     24300   1.5166971     -0.43722665     1.0793188      0.29698385   
     24310   1.5136974     -0.43477353     1.0787725      0.2998457    
     24320   1.5070159     -0.43302433     1.0738408      0.31090951   
     24330   1.503179      -0.43959447     1.0634342      0.29798373   
     24340   1.4927351     -0.43381388     1.058772       0.30494584   
     24350   1.4993135     -0.43292138     1.0662422      0.30548856   
     24360   1.4999182     -0.43334317     1.0664251      0.30071663   
     24370   1.5044477     -0.44135491     1.0629423      0.27721807   
     24380   1.5010207     -0.43620043     1.0646701      0.2942082    
     24390   1.5004507     -0.43769395     1.0626067      0.29654015   
     24400   1.4957144     -0.4399591      1.0556057      0.29270078   
     24410   1.4992852     -0.4421306      1.0570046      0.29489771   
     24420   1.4909836     -0.43631162     1.0545229      0.30385166   
     24430   1.4867696     -0.43624525     1.0503757      0.30178537   
     24440   1.4823728     -0.44099633     1.0412282      0.2936848    
     24450   1.4885221     -0.4400703      1.048303       0.29106168   
     24460   1.4887607     -0.43872828     1.0498835      0.29600119   
     24470   1.491138      -0.44281392     1.048175       0.28683333   
     24480   1.4854722     -0.43486584     1.0504579      0.30867369   
     24490   1.4974648     -0.44363996     1.0536751      0.29551032   
     24500   1.4914544     -0.43721999     1.0540853      0.30279823   
     24510   1.4855352     -0.43302166     1.052365       0.30386108   
     24520   1.4857533     -0.44019261     1.0454121      0.29085631   
     24530   1.4851161     -0.43953607     1.0454315      0.29559121   
     24540   1.4807245     -0.43566706     1.0449094      0.29242165   
     24550   1.4837411     -0.43299301     1.0505998      0.30123853   
     24560   1.4790092     -0.43869015     1.0401711      0.28449795   
     24570   1.475701      -0.43721001     1.0383434      0.29544809   
     24580   1.4814982     -0.4402176      1.0411324      0.28934787   
     24590   1.4768291     -0.43429452     1.0423869      0.3040464    
     24600   1.4807499     -0.4367489      1.0438529      0.3026449    
     24610   1.4777543     -0.44529951     1.0323071      0.28210842   
     24620   1.4734201     -0.43799384     1.0352789      0.30593481   
     24630   1.4780615     -0.43580428     1.0421094      0.3125177    
     24640   1.4832556     -0.44131293     1.0417943      0.29365252   
     24650   1.4813176     -0.44109612     1.0400733      0.287772     
     24660   1.4787056     -0.44206327     1.0364945      0.29193134   
     24670   1.469818      -0.44579712     1.0238739      0.29533485   
     24680   1.4731115     -0.44038828     1.0325759      0.29971995   
     24690   1.4788856     -0.44020167     1.038536       0.295479     
     24700   1.4832906     -0.43646963     1.0466726      0.31044647   
     24710   1.4934052     -0.43724877     1.0560071      0.30686333   
     24720   1.4975066     -0.44463163     1.0527252      0.27890943   
     24730   1.4858773     -0.44053284     1.0451958      0.28464552   
     24740   1.4782924     -0.43006072     1.0480838      0.30975593   
     24750   1.4853809     -0.43859074     1.0466416      0.29156505   
     24760   1.4891409     -0.43639996     1.0525921      0.29569096   
     24770   1.4855392     -0.43930767     1.046083       0.29777284   
     24780   1.4817122     -0.43634692     1.0452171      0.29169102   
     24790   1.4917819     -0.4414436      1.0501892      0.28164613   
     24800   1.4827513     -0.44049199     1.0421111      0.28727598   
     24810   1.4774792     -0.43962821     1.0377032      0.29338334   
     24820   1.4808903     -0.44023216     1.0405101      0.28273265   
     24830   1.4820604     -0.43761213     1.0443         0.29109393   
     24840   1.4760081     -0.43524281     1.0406176      0.29817321   
     24850   1.482902      -0.43848208     1.0442716      0.28288531   
     24860   1.478713      -0.43514909     1.0434161      0.29829708   
     24870   1.4782928     -0.43652043     1.0416246      0.29523498   
     24880   1.4760309     -0.43791178     1.0379715      0.29366723   
     24890   1.4759982     -0.43980553     1.036045       0.2966127    
     24900   1.4760689     -0.44014149     1.0357798      0.2930896    
     24910   1.4789616     -0.44001387     1.0387999      0.28416544   
     24920   1.4829397     -0.43880709     1.0439843      0.28591469   
     24930   1.4813696     -0.4423837      1.0388378      0.28249697   
     24940   1.476437      -0.43827775     1.0380116      0.29173903   
     24950   1.4746455     -0.43978332     1.0347147      0.29377574   
     24960   1.4682139     -0.44133929     1.0267278      0.29422341   
     24970   1.4666551     -0.43671227     1.0297962      0.29612862   
     24980   1.4702382     -0.44246761     1.0276236      0.28878747   
     24990   1.4591701     -0.44036008     1.0186641      0.29090663   
     25000   1.453819      -0.43480792     1.0188657      0.30125932   
     25010   1.4652619     -0.44223613     1.0228792      0.28809118   
     25020   1.4696764     -0.44459727     1.0249321      0.28754065   
     25030   1.4654761     -0.43634236     1.0289872      0.30487069   
     25040   1.462091      -0.43919666     1.0227482      0.30083881   
     25050   1.4660273     -0.44448153     1.0213991      0.28562576   
     25060   1.4609775     -0.43510645     1.025725       0.30923948   
     25070   1.4655698     -0.43410511     1.0313181      0.30358364   
     25080   1.4733073     -0.44268438     1.0304756      0.29426789   
     25090   1.4653323     -0.43800455     1.0271812      0.29372513   
     25100   1.4606068     -0.43784349     1.0226172      0.29441055   
     25110   1.4610446     -0.44071667     1.0201818      0.28837113   
     25120   1.4637556     -0.4435309      1.0200783      0.28751838   
     25130   1.4687414     -0.44330856     1.025286       0.28994848   
     25140   1.4609804     -0.44215718     1.0186771      0.28672296   
     25150   1.4598398     -0.4481765      1.0115173      0.2662878    
     25160   1.4622771     -0.44044567     1.0216853      0.28396154   
     25170   1.4622767     -0.44577727     1.0163532      0.27335906   
     25180   1.463773      -0.44268896     1.0209376      0.28610593   
     25190   1.4571357     -0.43955007     1.0174399      0.3007721    
     25200   1.4544006     -0.44868884     1.0055663      0.28130187   
     25210   1.4483269     -0.45016618     0.99801592     0.27899123   
     25220   1.4324011     -0.43887065     0.99338719     0.29946998   
     25230   1.4448056     -0.44062138     1.0040398      0.30102472   
     25240   1.4520195     -0.44451297     1.0073614      0.28635355   
     25250   1.453855      -0.44811668     1.005593       0.28174681   
     25260   1.4584674     -0.45163294     1.0066886      0.27992761   
     25270   1.448016      -0.43535345     1.0125177      0.31729067   
     25280   1.4543891     -0.44732292     1.0069208      0.28903345   
     25290   1.4582781     -0.44433269     1.0137996      0.29687877   
     25300   1.4639151     -0.45107937     1.0126894      0.28816413   
     25310   1.4733344     -0.45032287     1.0228642      0.29191964   
     25320   1.4785304     -0.45034109     1.0280415      0.29171363   
     25330   1.4799994     -0.45118839     1.028663       0.2829743    
     25340   1.4641791     -0.44439448     1.0196382      0.29050423   
     25350   1.4693745     -0.44154386     1.0276837      0.29547255   
     25360   1.4756714     -0.44427228     1.0312516      0.2909953    
     25370   1.4697497     -0.44970939     1.0198934      0.27446203   
     25380   1.4540003     -0.43626438     1.0175905      0.2843707    
     25390   1.4564356     -0.43912431     1.0171656      0.28248148   
     25400   1.4608584     -0.44115809     1.0195543      0.27741041   
     25410   1.4648889     -0.44682472     1.0179177      0.25881842   
     25420   1.4564121     -0.43597547     1.020291       0.28715049   
     25430   1.4512412     -0.44095459     1.0101415      0.28109108   
     25440   1.4579242     -0.44210681     1.0156716      0.28764153   
     25450   1.4577866     -0.44455528     1.0130855      0.28075412   
     25460   1.4569192     -0.44702627     1.0097472      0.28247718   
     25470   1.4616385     -0.44436749     1.0171249      0.2894204    
     25480   1.4712675     -0.45474853     1.0163718      0.27545305   
     25490   1.4675462     -0.44774004     1.0196594      0.28359191   
     25500   1.4619366     -0.44743454     1.0143559      0.28026917   
     25510   1.4534666     -0.43903382     1.0142874      0.30876023   
     25520   1.449583      -0.44179207     1.007646       0.29533771   
     25530   1.4505003     -0.44268775     1.0076675      0.2799553    
     25540   1.4560089     -0.44565903     1.0102042      0.27294777   
     25550   1.4541295     -0.44857566     1.0054085      0.26616785   
     25560   1.4538548     -0.44678301     1.0069264      0.27398827   
     25570   1.4615502     -0.44340533     1.0179987      0.29294295   
     25580   1.4605036     -0.44582856     1.014529       0.2869766    
     25590   1.450343      -0.44528393     1.0049141      0.29521709   
     25600   1.4570748     -0.45576607     1.001163       0.28043683   
     25610   1.4546024     -0.45042689     1.00403        0.29339455   
     25620   1.4439328     -0.44513861     0.99864982     0.30204605   
     25630   1.4468137     -0.45209909     0.99456997     0.28099765   
     25640   1.4400975     -0.44519607     0.99475744     0.29324321   
     25650   1.4411545     -0.44847988     0.99253047     0.28554067   
     25660   1.4386282     -0.43968763     0.99879671     0.30589091   
     25670   1.4422405     -0.44946739     0.99262885     0.29063899   
     25680   1.4458522     -0.45079814     0.99490946     0.27854253   
     25690   1.4435104     -0.44408035     0.99928573     0.28193841   
     25700   1.4419697     -0.44696334     0.9948622      0.2834486    
     25710   1.4396843     -0.44578212     0.99375817     0.27647347   
     25720   1.4379182     -0.44670051     0.99107388     0.27183002   
     25730   1.4331321     -0.44989827     0.98309055     0.27601881   
     25740   1.4299896     -0.44685334     0.98299329     0.2803963    
     25750   1.4255584     -0.45171108     0.97370475     0.2685215    
     25760   1.4269023     -0.44711321     0.97964639     0.27145325   
     25770   1.4330507     -0.43662481     0.99628261     0.28967408   
     25780   1.4324736     -0.4422995      0.99003085     0.28576084   
     25790   1.4417753     -0.45331188     0.98831923     0.26751022   
     25800   1.4387424     -0.4439127      0.99468583     0.28353596   
     25810   1.4453088     -0.45129715     0.9938671      0.27828549   
     25820   1.437083      -0.45015214     0.98678715     0.29072686   
     25830   1.4299164     -0.45292007     0.97685339     0.29368366   
     25840   1.4274215     -0.45040331     0.9768754      0.2836961    
     25850   1.4248758     -0.44244746     0.98228582     0.29569705   
     25860   1.4276921     -0.45031246     0.97723683     0.28382953   
     25870   1.4232814     -0.45011153     0.97302755     0.27732001   
     25880   1.4191023     -0.44313209     0.97582832     0.28012385   
     25890   1.4203592     -0.44619351     0.97402368     0.2802729    
     25900   1.4201251     -0.44155217     0.97843089     0.29324516   
     25910   1.4258925     -0.44322674     0.98252319     0.28855481   
     25920   1.4243321     -0.4471359      0.97705373     0.27634908   
     25930   1.4331298     -0.44331165     0.98967485     0.29250966   
     25940   1.4383148     -0.44776699     0.99040399     0.29089614   
     25950   1.4303701     -0.44839178     0.98183529     0.29189888   
     25960   1.4404648     -0.45211381     0.98820696     0.27706384   
     25970   1.4348726     -0.44711571     0.98761341     0.28476513   
     25980   1.4341317     -0.44289578     0.99109251     0.29357608   
     25990   1.4423367     -0.44915319     0.9930393      0.28592682   
     26000   1.4356071     -0.4408319      0.99463165     0.28824296   
     26010   1.4318322     -0.44660954     0.98507942     0.27204616   
     26020   1.4322556     -0.44319179     0.98892056     0.27525221   
     26030   1.4260094     -0.43562154     0.99024521     0.29176139   
     26040   1.4156668     -0.43503573     0.98048945     0.29557764   
     26050   1.4249209     -0.44495123     0.97982719     0.27585065   
     26060   1.4219638     -0.44916995     0.97265164     0.27346666   
     26070   1.4179115     -0.44914971     0.96861995     0.27572767   
     26080   1.4199334     -0.44544307     0.97434831     0.28548926   
     26090   1.4239962     -0.4446569      0.97919689     0.2941784    
     26100   1.4198896     -0.45074351     0.96900415     0.27300602   
     26110   1.4212183     -0.44975978     0.97131645     0.27512662   
     26120   1.4251796     -0.45808531     0.96695179     0.26556333   
     26130   1.4121503     -0.44880207     0.963207       0.28993954   
     26140   1.4160525     -0.45308758     0.96282335     0.2786339    
     26150   1.4189578     -0.44800886     0.97080706     0.28161016   
     26160   1.4244053     -0.44528451     0.97897833     0.28121591   
     26170   1.4180742     -0.43814867     0.97978369     0.29378457   
     26180   1.4274104     -0.44742095     0.97984673     0.27349847   
     26190   1.4314797     -0.44781652     0.98352004     0.26957272   
     26200   1.4226974     -0.44287968     0.97967543     0.28529464   
     26210   1.4256591     -0.44619255     0.97932396     0.28308629   
     26220   1.4155599     -0.4418818      0.97353655     0.27735101   
     26230   1.4176353     -0.44733887     0.97015468     0.27273261   
     26240   1.4197309     -0.4426553      0.97693363     0.27735786   
     26250   1.421323      -0.44678692     0.97439394     0.27493273   
     26260   1.4204215     -0.44817514     0.97210435     0.27359149   
     26270   1.4152302     -0.44416945     0.97091924     0.28560963   
     26280   1.4090064     -0.44536475     0.96350073     0.28845707   
     26290   1.4215167     -0.45207779     0.96929678     0.27759396   
     26300   1.4242458     -0.45295041     0.97115301     0.27054115   
     26310   1.4189737     -0.45096458     0.96786726     0.28443361   
     26320   1.4168277     -0.45308478     0.96360127     0.28281127   
     26330   1.4152241     -0.45099984     0.96408272     0.2720484    
     26340   1.4191287     -0.44736872     0.97161802     0.27187285   
     26350   1.4229223     -0.44396962     0.97881038     0.27891664   
     26360   1.419455      -0.44179466     0.97751841     0.28533129   
     26370   1.4158709     -0.44731166     0.96841768     0.27287824   
     26380   1.4212884     -0.44652716     0.97461915     0.27128637   
     26390   1.4225878     -0.44736955     0.97507602     0.27566833   
     26400   1.4189695     -0.44879481     0.97003278     0.26488641   
     26410   1.4144002     -0.44618633     0.96807244     0.26447384   
     26420   1.4168088     -0.44010658     0.97656059     0.28551466   
     26430   1.417967      -0.43695718     0.98086802     0.28504786   
     26440   1.4233161     -0.45202127     0.97115245     0.26388463   
     26450   1.4247131     -0.44490708     0.97966356     0.27792925   
     26460   1.4198168     -0.44336216     0.97631269     0.2864939    
     26470   1.4223612     -0.44931734     0.97290161     0.27504042   
     26480   1.4283494     -0.45187302     0.97633354     0.27686046   
     26490   1.4241196     -0.4495281      0.97444904     0.2764815    
     26500   1.4226432     -0.44365892     0.97884199     0.28643977   
     26510   1.4306341     -0.45170051     0.9787905      0.26948611   
     26520   1.4287731     -0.44712961     0.9815006      0.28298629   
     26530   1.4276374     -0.45135639     0.97613825     0.27400275   
     26540   1.4238839     -0.45079593     0.97294561     0.28458207   
     26550   1.4214177     -0.45468467     0.96659087     0.27621987   
     26560   1.4139527     -0.45320484     0.96060648     0.27707517   
     26570   1.4137335     -0.44800522     0.96558687     0.28474941   
     26580   1.4128246     -0.45755621     0.95512709     0.26783922   
     26590   1.4042764     -0.45211269     0.95202329     0.2790389    
     26600   1.4006545     -0.45176878     0.94874567     0.27146565   
     26610   1.394591      -0.44522574     0.94922576     0.28151999   
     26620   1.3879119     -0.44602673     0.94174638     0.27354087   
     26630   1.3898216     -0.44405721     0.94562542     0.27436389   
     26640   1.3882834     -0.44335512     0.94478949     0.27614187   
     26650   1.3972872     -0.44859603     0.94855148     0.27225532   
     26660   1.4023463     -0.45548773     0.94671829     0.26487781   
     26670   1.4058753     -0.45663463     0.9491001      0.26675259   
     26680   1.401078      -0.44602378     0.95491416     0.29103275   
     26690   1.401903      -0.44801553     0.95374726     0.27632654   
     26700   1.3960625     -0.45292211     0.94300081     0.27018033   
     26710   1.3934715     -0.44847693     0.94485522     0.27480987   
     26720   1.3946037     -0.45263681     0.94182746     0.26836879   
     26730   1.3945443     -0.44526191     0.94914292     0.28480519   
     26740   1.3963463     -0.44625821     0.94994846     0.28623183   
     26750   1.404508      -0.45558757     0.94877996     0.27043423   
     26760   1.4084185     -0.45054818     0.95772946     0.27370761   
     26770   1.4020408     -0.4477949      0.95410573     0.27217499   
     26780   1.4034601     -0.44912321     0.95419654     0.2676147    
     26790   1.4184206     -0.45279777     0.965481       0.25484951   
     26800   1.4096342     -0.44676235     0.96273091     0.2761639    
     26810   1.4057048     -0.45343105     0.95213318     0.25985566   
     26820   1.409842      -0.45636819     0.95333285     0.25377221   
     26830   1.4063276     -0.4483548      0.95783213     0.26880775   
     26840   1.4043143     -0.44361676     0.96055711     0.28521495   
     26850   1.398894      -0.4489431      0.94981104     0.2759662    
     26860   1.4039378     -0.44624723     0.95755022     0.27711756   
     26870   1.4089028     -0.44716635     0.96159558     0.27195475   
     26880   1.4078307     -0.44597219     0.96171775     0.27624417   
     26890   1.421981      -0.45427462     0.96756421     0.26770058   
     26900   1.4189443     -0.45286796     0.96593445     0.2633294    
     26910   1.4164417     -0.44925496     0.96704511     0.27989831   
     26920   1.4084229     -0.44690818     0.96137391     0.28843965   
     26930   1.4130918     -0.44739975     0.96555071     0.28264786   
     26940   1.4144272     -0.44904682     0.96523889     0.27893319   
     26950   1.408054      -0.45037947     0.9575337      0.26594444   
     26960   1.3998126     -0.44824051     0.95143213     0.26587396   
     26970   1.3985818     -0.44292926     0.95551269     0.27437191   
     26980   1.4076912     -0.45269748     0.95485297     0.26188459   
     26990   1.4055798     -0.44652553     0.9589137      0.27446789   
     27000   1.4046402     -0.45314885     0.95135093     0.27607992   
     27010   1.4054067     -0.45635605     0.94891007     0.27067378   
     27020   1.4009773     -0.45287256     0.94796464     0.27506632   
     27030   1.4026944     -0.44977418     0.95277995     0.28176892   
     27040   1.4023632     -0.45464978     0.94757315     0.26080885   
     27050   1.3912093     -0.44803635     0.94303381     0.27354806   
     27060   1.3899458     -0.45085959     0.93894723     0.27313292   
     27070   1.3860051     -0.44549691     0.94036958     0.28124446   
     27080   1.3915005     -0.45149397     0.9398674      0.26647028   
     27090   1.3836375     -0.44163132     0.94186785     0.27300411   
     27100   1.3793543     -0.44409811     0.9351183      0.26495665   
     27110   1.3744386     -0.44922577     0.92507543     0.25219742   
     27120   1.3807438     -0.44474237     0.93586335     0.2571006    
     27130   1.3784599     -0.44347695     0.93484509     0.25914332   
     27140   1.3814266     -0.44239199     0.93889652     0.27088935   
     27150   1.3795863     -0.44154702     0.93790135     0.28351213   
     27160   1.3778296     -0.44231678     0.93537502     0.28118758   
     27170   1.3805818     -0.44396315     0.93648059     0.27614104   
     27180   1.3817093     -0.44953242     0.93203872     0.27472604   
     27190   1.3821154     -0.4528098      0.92916738     0.27986883   
     27200   1.3791577     -0.45119658     0.92782323     0.26725882   
     27210   1.3780519     -0.45208628     0.92582785     0.26171236   
     27220   1.370808      -0.44619092     0.92447998     0.27909704   
     27230   1.3821869     -0.45327293     0.92877578     0.26455932   
     27240   1.3838629     -0.44742544     0.93629911     0.28039607   
     27250   1.3829889     -0.45330297     0.92954759     0.26824479   
     27260   1.3845994     -0.45280333     0.93165763     0.26324973   
     27270   1.3798786     -0.4498708      0.92986982     0.27426601   
     27280   1.3856144     -0.46057722     0.92489862     0.26075108   
     27290   1.3919168     -0.46132593     0.93045172     0.27017835   
     27300   1.3925206     -0.45734312     0.93503821     0.27533987   
     27310   1.3843004     -0.45626668     0.92789527     0.27649542   
     27320   1.3905793     -0.45817416     0.93226613     0.26633064   
     27330   1.3858256     -0.45664748     0.92903955     0.27603424   
     27340   1.3804227     -0.45584721     0.92443746     0.26976706   
     27350   1.3780839     -0.45489115     0.92305495     0.26630545   
     27360   1.3800129     -0.45151964     0.9283553      0.26191262   
     27370   1.3679795     -0.44435379     0.92348886     0.27858266   
     27380   1.36746       -0.4544988      0.91282448     0.25680735   
     27390   1.3663515     -0.45563157     0.91058332     0.25048159   
     27400   1.3586495     -0.44586229     0.91265136     0.27598719   
     27410   1.3598381     -0.456252       0.90345009     0.26467649   
     27420   1.3559861     -0.45067266     0.9051778      0.27631995   
     27430   1.3500099     -0.45436402     0.89551088     0.27032655   
     27440   1.3421238     -0.44692021     0.89506938     0.28534426   
     27450   1.3484602     -0.45209183     0.89623348     0.26600514   
     27460   1.3486806     -0.44931118     0.89923459     0.26647211   
     27470   1.3498144     -0.44353555     0.90614389     0.27480092   
     27480   1.3595334     -0.44858696     0.91081051     0.26369174   
     27490   1.3636807     -0.45434978     0.90919456     0.25355006   
     27500   1.3599183     -0.44754224     0.91224009     0.26569726   
     27510   1.3536552     -0.44307395     0.9104459      0.27202733   
     27520   1.3610601     -0.44367022     0.9172538      0.27432565   
     27530   1.3601499     -0.45308372     0.90693018     0.25175879   
     27540   1.3567225     -0.45324847     0.90333834     0.25436504   
     27550   1.3496908     -0.44852354     0.90103232     0.26015806   
     27560   1.3569492     -0.44799457     0.90881889     0.2674183    
     27570   1.362885      -0.443013       0.91973568     0.28661114   
     27580   1.3664304     -0.45232478     0.91396896     0.26219996   
     27590   1.3664078     -0.44652154     0.91974961     0.26099299   
     27600   1.364777      -0.44712486     0.91751568     0.26246398   
     27610   1.3681661     -0.45082424     0.91720509     0.26263643   
     27620   1.3688359     -0.45013354     0.91856551     0.26568636   
     27630   1.3610843     -0.44799509     0.91295306     0.26780427   
     27640   1.3667947     -0.45044057     0.91621749     0.2615889    
     27650   1.3660805     -0.4466687      0.91927516     0.26365441   
     27660   1.3649909     -0.44715687     0.91769757     0.26119879   
     27670   1.364344      -0.44831492     0.91589262     0.26331913   
     27680   1.3696302     -0.44771973     0.9217735      0.26708514   
     27690   1.3752993     -0.4530858      0.92207594     0.26034473   
     27700   1.3735916     -0.44960086     0.9238534      0.27426524   
     27710   1.3738445     -0.45107545     0.92263169     0.26887475   
     27720   1.3742518     -0.45489383     0.91922052     0.25917682   
     27730   1.3775998     -0.45366481     0.92379723     0.26400878   
     27740   1.3805859     -0.45452743     0.92592037     0.26439527   
     27750   1.3657921     -0.4455031      0.92015243     0.28018431   
     27760   1.3768846     -0.46041281     0.91633413     0.25362763   
     27770   1.3713044     -0.45623624     0.91493099     0.26562182   
     27780   1.3675851     -0.45681181     0.91063653     0.25934879   
     27790   1.362623      -0.45678282     0.90570394     0.25964567   
     27800   1.3571671     -0.45574959     0.90128184     0.26311662   
     27810   1.3606523     -0.45819031     0.90232592     0.26355238   
     27820   1.3614625     -0.45594036     0.90538597     0.27338115   
     27830   1.3587657     -0.453371       0.90525881     0.27495617   
     27840   1.3542002     -0.45229765     0.90176716     0.26687676   
     27850   1.3507586     -0.4498625      0.90076106     0.26820268   
     27860   1.3470854     -0.45109076     0.89585997     0.25783646   
     27870   1.3450413     -0.4476415      0.89726528     0.26893475   
     27880   1.3470107     -0.44728268     0.89959331     0.26398312   
     27890   1.350393      -0.45420483     0.8960531      0.24127912   
     27900   1.3496593     -0.44893673     0.90058765     0.25304216   
     27910   1.3512573     -0.45342231     0.89769987     0.25406171   
     27920   1.3466685     -0.44829722     0.89823665     0.27058376   
     27930   1.3467388     -0.45542167     0.89118249     0.27349424   
     27940   1.3504136     -0.46080288     0.88947565     0.25989853   
     27950   1.3426491     -0.45676942     0.88574546     0.26412369   
     27960   1.3378308     -0.45719439     0.88050267     0.25715282   
     27970   1.3462531     -0.45638185     0.88973665     0.26851906   
     27980   1.3433202     -0.46030539     0.88288049     0.25456353   
     27990   1.3372181     -0.45586805     0.88121636     0.26502804   
     28000   1.3325781     -0.45285729     0.87958753     0.26957583   
     28010   1.326376      -0.44994385     0.8762995      0.27214678   
     28020   1.3368202     -0.45930982     0.87737672     0.26102404   
     28030   1.3447134     -0.4629253      0.88165364     0.25920195   
     28040   1.3493054     -0.46430732     0.88486316     0.26133289   
     28050   1.3451603     -0.4551857      0.88984013     0.27637368   
     28060   1.3491151     -0.45841534     0.89056485     0.26957655   
     28070   1.3442816     -0.45992521     0.88422196     0.25919202   
     28080   1.3398582     -0.45901082     0.88071341     0.24921739   
     28090   1.3427164     -0.45523989     0.88734219     0.26574914   
     28100   1.3460041     -0.46089394     0.88497556     0.26395023   
     28110   1.3510258     -0.45676927     0.89412143     0.2748315    
     28120   1.3492081     -0.45718236     0.89189083     0.27531445   
     28130   1.3521312     -0.45696587     0.89503013     0.26411899   
     28140   1.3580751     -0.454135       0.90380431     0.26328647   
     28150   1.3609975     -0.45733659     0.90352484     0.25703764   
     28160   1.3538679     -0.45630325     0.89742931     0.25182314   
     28170   1.3598314     -0.45244087     0.90725456     0.2650169    
     28180   1.3614297     -0.45467583     0.90661777     0.26701824   
     28190   1.3477977     -0.45274394     0.89491902     0.27101669   
     28200   1.3467348     -0.45670773     0.88989241     0.26479217   
     28210   1.347493      -0.44810873     0.89924952     0.28743298   
     28220   1.3474304     -0.45640312     0.89089249     0.25864106   
     28230   1.3402595     -0.44546813     0.89465736     0.27236605   
     28240   1.3486857     -0.45565493     0.8928959      0.24183811   
     28250   1.3463308     -0.45072687     0.8954693      0.25561717   
     28260   1.342313      -0.45207328     0.89010548     0.26281979   
     28270   1.336577      -0.45083123     0.88561208     0.27017966   
     28280   1.3380327     -0.45802118     0.87987771     0.25509235   
     28290   1.3324818     -0.45083473     0.88151386     0.26707272   
     28300   1.3274752     -0.4527455      0.87459691     0.26381643   
     28310   1.324942      -0.44962374     0.87518572     0.26124842   
     28320   1.3262873     -0.45568905     0.87046562     0.24080728   
     28330   1.3261836     -0.44645075     0.87960021     0.25431481   
     28340   1.3282115     -0.45299082     0.8750879      0.24768276   
     28350   1.3355611     -0.456432       0.87899553     0.25172581   
     28360   1.3321113     -0.45084975     0.8811283      0.28149018   
     28370   1.3261093     -0.45802074     0.86795598     0.25288639   
     28380   1.3212245     -0.45929421     0.86179817     0.25567633   
     28390   1.3174893     -0.45970681     0.85765076     0.25713755   
     28400   1.3165967     -0.46370302     0.85276197     0.24600641   
     28410   1.3234049     -0.46201008     0.86126251     0.25056216   
     28420   1.3171713     -0.45911736     0.85792221     0.2440393    
     28430   1.3271431     -0.46390541     0.86310493     0.24621767   
     28440   1.3264586     -0.45892888     0.86739705     0.26060789   
     28450   1.334601      -0.46189955     0.87256795     0.26007301   
     28460   1.3355689     -0.4650958      0.87033951     0.25702278   
     28470   1.3192824     -0.44966837     0.86948206     0.27821031   
     28480   1.3307121     -0.46265949     0.86791953     0.25605734   
     28490   1.3234614     -0.46268839     0.86064065     0.2530866    
     28500   1.3194206     -0.45385228     0.86543635     0.27930067   
     28510   1.3151546     -0.46068071     0.85434235     0.25870293   
     28520   1.3161869     -0.46046988     0.85558536     0.25826848   
     28530   1.3174262     -0.46255594     0.85473851     0.26168182   
     28540   1.3208445     -0.46389902     0.85681344     0.26364818   
     28550   1.3201661     -0.45968118     0.86035294     0.26109998   
     28560   1.3150418     -0.45796768     0.85694262     0.26234013   
     28570   1.3223549     -0.46081444     0.86140826     0.25337866   
     28580   1.3232277     -0.46167379     0.86142161     0.2477661    
     28590   1.3242737     -0.46078245     0.86335877     0.26166564   
     28600   1.3240616     -0.45960376     0.86432539     0.26666665   
     28610   1.323497      -0.46103235     0.86233228     0.25660863   
     28620   1.3245023     -0.46897455     0.85539529     0.24375038   
     28630   1.3180739     -0.46087421     0.85706786     0.26508032   
     28640   1.3203781     -0.46584759     0.85439845     0.24886831   
     28650   1.3260644     -0.46114599     0.86478584     0.26376949   
     28660   1.3307425     -0.46435768     0.86625175     0.24899705   
     28670   1.3301183     -0.46058135     0.86940395     0.25862182   
     28680   1.3336987     -0.46315029     0.870415       0.25562335   
     28690   1.3333653     -0.45532263     0.87790937     0.25895925   
     28700   1.3300349     -0.45682175     0.87308014     0.25718292   
     28710   1.3329846     -0.4643873      0.86846403     0.24605331   
     28720   1.3270585     -0.45904328     0.86788253     0.2612959    
     28730   1.3239963     -0.45753779     0.86632613     0.25052984   
     28740   1.3216616     -0.45994134     0.8615881      0.24107707   
     28750   1.311946      -0.45347589     0.85833892     0.25674133   
     28760   1.319892      -0.46310834     0.85665172     0.24248648   
     28770   1.3305992     -0.45228133     0.87818477     0.26650989   
     28780   1.335421      -0.45640824     0.87887923     0.26090453   
     28790   1.3379183     -0.45655333     0.88123122     0.25887565   
     28800   1.3392001     -0.45686886     0.88219727     0.26720702   
     28810   1.3388911     -0.46284366     0.87591353     0.24855436   
     28820   1.3244919     -0.46121786     0.86314163     0.2470224    
     28830   1.3195782     -0.46038652     0.85905971     0.24355649   
     28840   1.3184653     -0.46125468     0.85707878     0.24934298   
     28850   1.3190792     -0.45700223     0.86194502     0.25800473   
     28860   1.3231016     -0.45745261     0.86551672     0.25483274   
     28870   1.3256288     -0.45750188     0.86799433     0.26183187   
     28880   1.3278761     -0.46864214     0.85910119     0.24677508   
     28890   1.3275927     -0.46227439     0.86518552     0.25835885   
     28900   1.3305583     -0.46731575     0.86310947     0.2460594    
     28910   1.328687      -0.46051796     0.86803616     0.25974155   
     28920   1.3304648     -0.46370963     0.86662214     0.26258884   
     28930   1.3286043     -0.46491364     0.86355781     0.25662527   
     28940   1.3260685     -0.46366842     0.86226751     0.25099951   
     28950   1.3261638     -0.45717063     0.86886058     0.26145464   
     28960   1.3289524     -0.4622082      0.86661127     0.25826994   
     28970   1.3286575     -0.46214509     0.86637958     0.25406065   
     28980   1.3280575     -0.46575462     0.86217005     0.24724122   
     28990   1.3194409     -0.46033896     0.85896997     0.25707631   
     29000   1.3220918     -0.4648647      0.85709488     0.25320261   
     29010   1.3144896     -0.4629456      0.8514126      0.25630719   
     29020   1.3165235     -0.46360207     0.85278975     0.2471426    
     29030   1.3207338     -0.46783388     0.85276788     0.2354301    
     29040   1.3140558     -0.46281405     0.85111036     0.24009052   
     29050   1.3060647     -0.46076779     0.84516633     0.25109845   
     29060   1.3121144     -0.46051207     0.85147113     0.25093744   
     29070   1.318615      -0.46368989     0.85479322     0.24982559   
     29080   1.3191792     -0.45924625     0.85980106     0.26666948   
     29090   1.3175698     -0.46520643     0.85223166     0.24702875   
     29100   1.3155291     -0.4678781      0.84751948     0.23375957   
     29110   1.3117162     -0.46003391     0.85155111     0.25346411   
     29120   1.3040498     -0.46534888     0.83857055     0.23993393   
     29130   1.3067862     -0.46114771     0.84550777     0.25091105   
     29140   1.3085676     -0.45833811     0.85009864     0.25574685   
     29150   1.3164393     -0.46072427     0.85558334     0.26455564   
     29160   1.3135307     -0.46846609     0.84493327     0.25341026   
     29170   1.3094102     -0.46704743     0.84223185     0.25302255   
     29180   1.3046996     -0.46260834     0.84196077     0.25370838   
     29190   1.3028837     -0.46424493     0.83850853     0.23860032   
     29200   1.3032446     -0.46251591     0.84059837     0.24849939   
     29210   1.3115854     -0.46813504     0.8433192      0.24101769   
     29220   1.3160494     -0.46849992     0.84741791     0.24363523   
     29230   1.3121773     -0.4622835      0.84976261     0.26708792   
     29240   1.3039643     -0.46388104     0.83995288     0.26117635   
     29250   1.3070272     -0.47183815     0.83505834     0.24674911   
     29260   1.3013765     -0.46559972     0.83564662     0.25703916   
     29270   1.2982597     -0.46763469     0.83049523     0.24805418   
     29280   1.3020685     -0.46925432     0.832684       0.25283966   
     29290   1.3003697     -0.46408302     0.83615668     0.25374266   
     29300   1.3005326     -0.46966442     0.83073816     0.24062295   
     29310   1.2944657     -0.46289429     0.83144193     0.24559473   
     29320   1.2896649     -0.46350591     0.82603005     0.23068429   
     29330   1.2971664     -0.46657688     0.83045985     0.23426974   
     29340   1.3042191     -0.46498219     0.83910646     0.24677466   
     29350   1.303863      -0.46853594     0.83519669     0.2394374    
     29360   1.2991566     -0.46019188     0.83883478     0.26071283   
     29370   1.2995834     -0.46031683     0.83913664     0.25852      
     29380   1.3092372     -0.4641072      0.84499907     0.24151578   
     29390   1.3123439     -0.46637009     0.8458426      0.23618124   
     29400   1.2986438     -0.45765885     0.84085504     0.25607285   
     29410   1.287402      -0.45822948     0.82904382     0.2486794    
     29420   1.29161       -0.46597011     0.82551076     0.23217109   
     29430   1.2875276     -0.46120115     0.82619773     0.24589998   
     29440   1.2888289     -0.46567224     0.82302773     0.24285718   
     29450   1.2843171     -0.4582878      0.8259009      0.25425741   
     29460   1.2897605     -0.46210447     0.82752708     0.25037391   
     29470   1.287633      -0.45706925     0.83043497     0.26230687   
     29480   1.283266      -0.45658223     0.82655549     0.26111074   
     29490   1.2808744     -0.45493282     0.82581347     0.25919138   
     29500   1.2811177     -0.46162975     0.81935986     0.25293471   
     29510   1.2820454     -0.46396277     0.81795443     0.24716867   
     29520   1.2810027     -0.46373547     0.8171391      0.24978799   
     29530   1.2863941     -0.46826532     0.81800013     0.24078315   
     29540   1.2904701     -0.46064829     0.82969271     0.25643124   
     29550   1.2938372     -0.4653931      0.82831472     0.25394723   
     29560   1.2941426     -0.46395003     0.83006313     0.25465452   
     29570   1.2910833     -0.47013882     0.82081533     0.23834897   
     29580   1.2897689     -0.46253064     0.82710925     0.25665209   
     29590   1.2951624     -0.46649531     0.82853759     0.24289177   
     29600   1.2938846     -0.46349036     0.83026488     0.25206844   
     29610   1.2901846     -0.46418314     0.82587241     0.25033153   
     29620   1.2925778     -0.46968255     0.82276594     0.24093997   
     29630   1.2864829     -0.46467724     0.82167702     0.24614337   
     29640   1.2867006     -0.46813494     0.81843694     0.24942132   
     29650   1.2944892     -0.47818853     0.81617122     0.23924989   
     29660   1.3007922     -0.47363244     0.82702965     0.24550183   
     29670   1.3044302     -0.47344101     0.83085875     0.24937695   
     29680   1.2998198     -0.46649142     0.83319837     0.26179967   
     29690   1.2992636     -0.47512629     0.82400742     0.23807626   
     29700   1.297755      -0.47084557     0.82677961     0.25110122   
     29710   1.3022667     -0.47692253     0.82521393     0.23562735   
     29720   1.3016034     -0.47221451     0.82925874     0.25045556   
     29730   1.2999039     -0.47006587     0.82970808     0.24340254   
     29740   1.2891325     -0.47363834     0.81536523     0.22984154   
     29750   1.2798227     -0.47055096     0.80914379     0.24627176   
     29760   1.2811876     -0.47737877     0.80368067     0.23484816   
     29770   1.2759242     -0.47523071     0.80056594     0.23945703   
     29780   1.2756462     -0.46879195     0.80672668     0.25925594   
     29790   1.2826159     -0.47581516     0.80667246     0.24696798   
     29800   1.2775856     -0.47323488     0.80422293     0.2490137    
     29810   1.281538      -0.47184922     0.80956061     0.25034111   
     29820   1.2868138     -0.47659255     0.81009258     0.24165523   
     29830   1.2731923     -0.47257139     0.80049359     0.25837131   
     29840   1.2771471     -0.47745163     0.79956775     0.23820083   
     29850   1.2752122     -0.46921688     0.80586785     0.25733623   
     29860   1.2771596     -0.46884211     0.80818979     0.25238801   
     29870   1.2775916     -0.47414484     0.80331896     0.25163407   
     29880   1.2859516     -0.48150935     0.80431363     0.23521411   
     29890   1.279725      -0.47299403     0.80660305     0.25196541   
     29900   1.2810169     -0.47713015     0.80375868     0.23557695   
     29910   1.2758264     -0.47363425     0.80206454     0.23797206   
     29920   1.2689318     -0.46373747     0.80506747     0.25350131   
     29930   1.2772839     -0.47144827     0.8057079      0.23066764   
     29940   1.2777373     -0.47458716     0.80302235     0.22871017   
     29950   1.2667058     -0.46216198     0.80441711     0.25288351   
     29960   1.2719393     -0.46399422     0.80781792     0.25363273   
     29970   1.2820615     -0.46892939     0.81300391     0.24180868   
     29980   1.2878054     -0.46637275     0.82130384     0.24272721   
     29990   1.2852606     -0.4565409      0.82859116     0.26083378   
     30000   1.2951707     -0.46711199     0.82792917     0.23415427   
     30010   1.2908865     -0.46413171     0.82662571     0.23280408   
     30020   1.2884152     -0.45971594     0.82857044     0.25482891   
     30030   1.2894845     -0.46367246     0.82568311     0.25251081   
     30040   1.2942347     -0.46490854     0.82919678     0.24369742   
     30050   1.2926488     -0.45887365     0.83364583     0.25058109   
     30060   1.2952254     -0.46981775     0.82527813     0.22619351   
     30070   1.288254      -0.47102009     0.81710509     0.23837062   
     30080   1.2849633     -0.46493907     0.81989569     0.2566351    
     30090   1.2845967     -0.46241765     0.8220506      0.27219084   
     30100   1.2940797     -0.46657034     0.82737998     0.25720668   
     30110   1.3006596     -0.46700368     0.83352581     0.26202815   
     30120   1.2961        -0.47493845     0.82103196     0.24800037   
     30130   1.2884914     -0.47210282     0.81625972     0.24774812   
     30140   1.2857768     -0.4721576      0.81349063     0.25114565   
     30150   1.2750394     -0.45675985     0.81815206     0.26940267   
     30160   1.2835791     -0.47022982     0.81322089     0.2316182    
     30170   1.2835182     -0.47482367     0.80856623     0.22472875   
     30180   1.2704081     -0.46590174     0.80437937     0.25519524   
     30190   1.2693894     -0.47124115     0.79802133     0.25388272   
     30200   1.2605772     -0.47195676     0.78849437     0.24539333   
     30210   1.2634485     -0.46644374     0.79687843     0.25462856   
     30220   1.2720332     -0.47641818     0.79548783     0.2331991    
     30230   1.2606421     -0.46863569     0.79188038     0.24046399   
     30240   1.2570216     -0.47395113     0.78294479     0.22642623   
     30250   1.2553867     -0.4706754      0.78458581     0.24123795   
     30260   1.2556154     -0.46814549     0.78734431     0.24604833   
     30270   1.2610644     -0.47130271     0.78963559     0.23903169   
     30280   1.2613927     -0.4708331      0.79043344     0.23385557   
     30290   1.2552506     -0.46588379     0.78924129     0.2502756    
     30300   1.2475793     -0.46787001     0.77958451     0.24520431   
     30310   1.2542204     -0.47265347     0.78144154     0.23162045   
     30320   1.2484922     -0.47071244     0.77765491     0.23533509   
     30330   1.2474573     -0.46949487     0.77783766     0.2418649    
     30340   1.2565879     -0.46849606     0.78796617     0.24040877   
     30350   1.2553416     -0.47024511     0.78497097     0.23570501   
     30360   1.2616829     -0.46790893     0.79364784     0.24147181   
     30370   1.2621104     -0.46572019     0.79626398     0.24965833   
     30380   1.26455       -0.47057054     0.79385305     0.23702586   
     30390   1.2628899     -0.46352534     0.79923824     0.24518702   
     30400   1.2587392     -0.46304966     0.79556367     0.25227307   
     30410   1.2677904     -0.47063276     0.79703085     0.23363678   
     30420   1.2687172     -0.46859047     0.79999989     0.23482809   
     30430   1.2686398     -0.46802534     0.80048755     0.23047913   
     30440   1.2618405     -0.46874834     0.792966       0.22821807   
     30450   1.260851      -0.46284543     0.79787945     0.23914257   
     30460   1.2665304     -0.45953622     0.80686754     0.24863588   
     30470   1.2738902     -0.46036977     0.81339305     0.24776777   
     30480   1.2726798     -0.46187728     0.8106753      0.24309566   
     30490   1.2744554     -0.46318383     0.81114411     0.24535921   
     30500   1.2854633     -0.46885553     0.81647917     0.23474129   
     30510   1.2754593     -0.46034671     0.81498507     0.24593151   
     30520   1.2703943     -0.46280405     0.80746325     0.24540513   
     30530   1.2698054     -0.46657206     0.80310637     0.24160585   
     30540   1.2633631     -0.46438299     0.7988538      0.24925378   
     30550   1.2683094     -0.46871586     0.79946667     0.25329249   
     30560   1.2713612     -0.47188186     0.79935217     0.23354315   
     30570   1.2679577     -0.47000953     0.79782141     0.22743146   
     30580   1.2673306     -0.46690735     0.80029648     0.23993878   
     30590   1.267165      -0.46792951     0.79910881     0.24826433   
     30600   1.2647878     -0.46689009     0.79777122     0.25129279   
     30610   1.2652221     -0.47292364     0.79217189     0.23313858   
     30620   1.2625261     -0.47100541     0.79139441     0.23429838   
     30630   1.2596179     -0.47285031     0.7866416      0.23410887   
     30640   1.2586438     -0.47539064     0.78312725     0.22726219   
     30650   1.2536757     -0.46385934     0.78969102     0.25943052   
     30660   1.2516425     -0.46891467     0.7826027      0.24396593   
     30670   1.2457164     -0.47006557     0.77552627     0.23746341   
     30680   1.2468986     -0.47031243     0.77646151     0.2370341    
     30690   1.2410484     -0.46330753     0.77761675     0.24224921   
     30700   1.2491689     -0.46766248     0.78138154     0.23492448   
     30710   1.252087      -0.47239893     0.77956283     0.23774237   
     30720   1.2432354     -0.47556847     0.7675426      0.23331233   
     30730   1.2375373     -0.47319579     0.76421777     0.23295309   
     30740   1.2321474     -0.46560264     0.76642152     0.23894442   
     30750   1.2358341     -0.46823659     0.76747397     0.23489454   
     30760   1.2365447     -0.46891894     0.76750212     0.24360687   
     30770   1.2333818     -0.46933859     0.76391987     0.23790154   
     30780   1.2341432     -0.46890755     0.76511226     0.23332081   
     30790   1.2301239     -0.46283781     0.76716305     0.23977922   
     30800   1.2367943     -0.4700642      0.76660645     0.23465278   
     30810   1.2291237     -0.46415349     0.76484726     0.24593687   
     30820   1.2345058     -0.47218117     0.76220119     0.21932587   
     30830   1.2286654     -0.47160611     0.75693644     0.2220927    
     30840   1.2322422     -0.46338197     0.76873704     0.24815019   
     30850   1.2388039     -0.46906779     0.76961219     0.23753662   
     30860   1.238244      -0.46868617     0.76943404     0.23686147   
     30870   1.2331523     -0.46851887     0.76451015     0.23852822   
     30880   1.2334708     -0.46660821     0.76673927     0.23232843   
     30890   1.2364428     -0.46824533     0.76807385     0.23256611   
     30900   1.2345179     -0.46701791     0.76737654     0.2338872    
     30910   1.2363191     -0.46911853     0.76707698     0.23129825   
     30920   1.2408451     -0.46600582     0.77471518     0.25105394   
     30930   1.2456259     -0.46745787     0.77804348     0.25565953   
     30940   1.2462743     -0.46584466     0.78030504     0.24371294   
     30950   1.2476452     -0.47009262     0.7774278      0.23355356   
     30960   1.2508397     -0.47327415     0.77744051     0.23193467   
     30970   1.2508152     -0.47648183     0.77420832     0.23355892   
     30980   1.2530617     -0.47025623     0.78268015     0.25414491   
     30990   1.2495663     -0.47144608     0.77799522     0.24791021   
     31000   1.2397075     -0.47289819     0.76668537     0.23799117   
     31010   1.2348883     -0.47344746     0.76131735     0.22994411   
     31020   1.23169       -0.47185017     0.75971662     0.22821486   
     31030   1.2384061     -0.47173737     0.76654492     0.23384392   
     31040   1.230848      -0.46885278     0.76187213     0.2370012    
     31050   1.2324775     -0.47489106     0.75746322     0.22355132   
     31060   1.2250674     -0.47248067     0.75246423     0.23270393   
     31070   1.2253909     -0.4726074      0.75266093     0.23159681   
     31080   1.2214739     -0.47996212     0.7413896      0.22314665   
     31090   1.2229324     -0.48264976     0.7401603      0.22384265   
     31100   1.2252003     -0.47739714     0.74768061     0.23815496   
     31110   1.2193587     -0.47361733     0.74561944     0.24844312   
     31120   1.2200383     -0.47723805     0.74267825     0.23826832   
     31130   1.2181946     -0.46838619     0.74968655     0.24511403   
     31140   1.2200513     -0.47293389     0.74699536     0.22030918   
     31150   1.2250033     -0.47469688     0.75018392     0.21733006   
     31160   1.225857      -0.47740773     0.74832666     0.20723277   
     31170   1.229172      -0.47574864     0.75330049     0.2142941    
     31180   1.2271303     -0.4759173      0.75109027     0.2230824    
     31190   1.2245328     -0.47419812     0.7502122      0.23549651   
     31200   1.2282762     -0.46960054     0.75855285     0.23825051   
     31210   1.2294716     -0.47349988     0.75584878     0.22243307   
     31220   1.2305959     -0.47249463     0.75797825     0.22864565   
     31230   1.2222489     -0.47230733     0.74981934     0.21963192   
     31240   1.217006      -0.47305295     0.74383137     0.22767572   
     31250   1.2143873     -0.4681124      0.7461535      0.25345053   
     31260   1.2159195     -0.47388176     0.74191619     0.23519672   
     31270   1.2199524     -0.47281402     0.74701641     0.23259717   
     31280   1.2209501     -0.47161516     0.74921287     0.23800775   
     31290   1.222563      -0.46859061     0.75385015     0.2471662    
     31300   1.219498      -0.47009196     0.74928405     0.23708893   
     31310   1.2246495     -0.47256082     0.75196624     0.22865745   
     31320   1.2325193     -0.47983797     0.75255809     0.21097726   
     31330   1.2318447     -0.47208493     0.75963661     0.23158279   
     31340   1.2317994     -0.47001109     0.76166512     0.24078599   
     31350   1.2356803     -0.47398904     0.76156773     0.2365257    
     31360   1.2409214     -0.47665655     0.76414074     0.23112718   
     31370   1.2344645     -0.4683025      0.76603852     0.2451181    
     31380   1.2393447     -0.47567932     0.76354143     0.229119     
     31390   1.2299425     -0.47090167     0.75891783     0.22869083   
     31400   1.2208336     -0.46682677     0.75388475     0.23362807   
     31410   1.2248897     -0.4694851      0.75528207     0.22372594   
     31420   1.2223755     -0.46936332     0.75288991     0.2290447    
     31430   1.2205957     -0.47260978     0.74786388     0.2272573    
     31440   1.2199831     -0.47394006     0.74592105     0.22250124   
     31450   1.2165273     -0.47259308     0.74381261     0.23019232   
     31460   1.2132958     -0.4680814      0.74509308     0.23247612   
     31470   1.2144956     -0.46728126     0.74709286     0.22749744   
     31480   1.2141024     -0.46721849     0.7467625      0.22763206   
     31490   1.2212452     -0.46984134     0.7512817      0.232547     
     31500   1.2179238     -0.4624377      0.75536433     0.24938979   
     31510   1.2252379     -0.47136689     0.75374848     0.2247308    
     31520   1.2224306     -0.4702494      0.75205895     0.22478223   
     31530   1.221392      -0.4698708      0.75139901     0.21931878   
     31540   1.2168935     -0.47476762     0.74200417     0.21492105   
     31550   1.2145238     -0.46926117     0.74514119     0.23301829   
     31560   1.210962      -0.46707301     0.74376792     0.23677345   
     31570   1.2099091     -0.46992295     0.73986515     0.22730549   
     31580   1.2110926     -0.46997158     0.74099994     0.237943     
     31590   1.2197304     -0.4757939      0.74381453     0.22766516   
     31600   1.2236755     -0.48159596     0.74195717     0.21989697   
     31610   1.2190065     -0.4728198      0.74606477     0.24578634   
     31620   1.2242135     -0.47728517     0.74680588     0.23535478   
     31630   1.225099      -0.4830662      0.74191024     0.22486787   
     31640   1.2182444     -0.48233371     0.73578888     0.22493422   
     31650   1.209395      -0.47703587     0.73223822     0.23158761   
     31660   1.2059818     -0.48296606     0.72289514     0.22381169   
     31670   1.2064808     -0.48061781     0.72574236     0.23117655   
     31680   1.2053939     -0.47555739     0.72971601     0.24024092   
     31690   1.2096785     -0.48293284     0.72662472     0.23720363   
     31700   1.2180747     -0.48219614     0.73575675     0.23594732   
     31710   1.2199073     -0.48321096     0.73657437     0.23304338   
     31720   1.21703       -0.4880899      0.72881836     0.22480319   
     31730   1.2059746     -0.48310005     0.72275396     0.23140593   
     31740   1.2085513     -0.4795301      0.7289003      0.23000901   
     31750   1.2148552     -0.48983938     0.72489435     0.21510635   
     31760   1.2080856     -0.48272061     0.72524417     0.22311686   
     31770   1.2064021     -0.48293447     0.72334704     0.22270803   
     31780   1.2049257     -0.48545966     0.71934555     0.21592262   
     31790   1.2053511     -0.48247464     0.7227559      0.23061796   
     31800   1.2054103     -0.48322564     0.72206407     0.22453054   
     31810   1.2032339     -0.48102137     0.72209216     0.22515725   
     31820   1.2142425     -0.48186764     0.73225344     0.2255584    
     31830   1.2130456     -0.48045165     0.73247263     0.2252189    
     31840   1.2107488     -0.4810145      0.72961317     0.22402148   
     31850   1.2028401     -0.47854328     0.72417658     0.23024197   
     31860   1.2050929     -0.48376253     0.72120988     0.22104538   
     31870   1.2130122     -0.47924419     0.7336467      0.2296938    
     31880   1.2116441     -0.47810543     0.73341754     0.23112589   
     31890   1.2139471     -0.47533976     0.73848596     0.23683869   
     31900   1.21592       -0.48025468     0.73554372     0.22558992   
     31910   1.2175395     -0.48318315     0.73423464     0.22761323   
     31920   1.2221968     -0.48758683     0.73448775     0.22933747   
     31930   1.2207273     -0.48661265     0.73399257     0.24056443   
     31940   1.2148655     -0.4870501      0.72769389     0.22472824   
     31950   1.2148483     -0.48248457     0.73224227     0.23643065   
     31960   1.2275865     -0.48577863     0.74168509     0.22553536   
     31970   1.2294199     -0.47922552     0.7500714      0.24332332   
     31980   1.2321949     -0.48026214     0.75180954     0.2373407    
     31990   1.2385927     -0.48159586     0.75687299     0.24008045   
     32000   1.2465707     -0.48481383     0.7616322      0.22449692   
     32010   1.2442765     -0.47823219     0.76591991     0.23601244   
     32020   1.2357247     -0.47985684     0.7557443      0.22418778   
     32030   1.2379436     -0.48595935     0.75186044     0.21959447   
     32040   1.2301878     -0.4711815      0.75888331     0.24363977   
     32050   1.2247133     -0.47429056     0.75030023     0.24139079   
     32060   1.2194937     -0.47653562     0.74283618     0.23509114   
     32070   1.2214932     -0.47748715     0.74388394     0.23628921   
     32080   1.2239687     -0.48505317     0.73879315     0.22206536   
     32090   1.2223038     -0.47807857     0.74410303     0.24062506   
     32100   1.220326      -0.47441325     0.74579076     0.23249244   
     32110   1.2241816     -0.47866834     0.74539087     0.22275763   
     32120   1.2195816     -0.47855851     0.74090117     0.22566507   
     32130   1.2160209     -0.47847228     0.73742704     0.22482413   
     32140   1.2122019     -0.47650417     0.73557647     0.22423089   
     32150   1.2122797     -0.47600713     0.73615133     0.23007714   
     32160   1.2110105     -0.48179898     0.7290904      0.22441286   
     32170   1.2003844     -0.47567361     0.72459076     0.23237821   
     32180   1.1987816     -0.47820583     0.72045588     0.22313612   
     32190   1.2007834     -0.47836085     0.72230244     0.21592708   
     32200   1.2050813     -0.47716372     0.72779702     0.22394073   
     32210   1.2051985     -0.48386588     0.72121212     0.21862278   
     32220   1.1983517     -0.48083103     0.71740078     0.22337987   
     32230   1.1940156     -0.47452575     0.71937042     0.23871112   
     32240   1.1980853     -0.48225114     0.7157143      0.22100185   
     32250   1.1929714     -0.47759572     0.71525637     0.22489949   
     32260   1.1898856     -0.47753318     0.71223341     0.22735733   
     32270   1.1847715     -0.47926813     0.70538488     0.22608073   
     32280   1.1837792     -0.47845767     0.70520318     0.21994398   
     32290   1.1870145     -0.47750464     0.70939116     0.22106504   
     32300   1.1824249     -0.48002321     0.70228343     0.22229519   
     32310   1.183806      -0.48371091     0.69997673     0.21582001   
     32320   1.1825906     -0.47827068     0.70420171     0.2253624    
     32330   1.1764366     -0.4766008      0.69971812     0.22995575   
     32340   1.1756382     -0.48806491     0.68745574     0.20430628   
     32350   1.1705096     -0.47997992     0.69041266     0.22313454   
     32360   1.1754244     -0.48427657     0.69103029     0.22355906   
     32370   1.1814104     -0.48170332     0.69958896     0.22612363   
     32380   1.1802674     -0.4851509      0.69499851     0.21957315   
     32390   1.1830005     -0.48849007     0.69439211     0.21211044   
     32400   1.1858174     -0.48128641     0.70441243     0.22610451   
     32410   1.1829102     -0.48363466     0.69915729     0.21722943   
     32420   1.179099      -0.47867682     0.70030424     0.23310345   
     32430   1.177883      -0.48129893     0.69646624     0.22354701   
     32440   1.1760872     -0.4822519      0.69371772     0.21965817   
     32450   1.1779702     -0.4838632      0.69398922     0.21670666   
     32460   1.1784889     -0.48001556     0.69835552     0.22577419   
     32470   1.177234      -0.47875507     0.69836124     0.22150042   
     32480   1.1783172     -0.48283434     0.69536505     0.21117711   
     32490   1.1753873     -0.47615151     0.69911824     0.23713393   
     32500   1.1703289     -0.47691948     0.6932924      0.23489644   
     32510   1.1749        -0.47577753     0.69900494     0.22670478   
     32520   1.1807773     -0.48388721     0.696772       0.20434879   
     32530   1.1787504     -0.48077795     0.6978546      0.20850537   
     32540   1.1831063     -0.48058843     0.70239959     0.2158117    
     32550   1.1824939     -0.47569948     0.70667615     0.22751586   
     32560   1.1867906     -0.4808939      0.70577802     0.21995914   
     32570   1.1832022     -0.47652663     0.70655722     0.22871565   
     32580   1.1830962     -0.47368472     0.70929313     0.23037092   
     32590   1.1811939     -0.47680593     0.70426989     0.22902838   
     32600   1.1822901     -0.4799151      0.70225676     0.21571345   
     32610   1.1839647     -0.48059731     0.70324896     0.22010272   
     32620   1.1840323     -0.48057875     0.70333511     0.22215744   
     32630   1.1884995     -0.48248057     0.7059001      0.21686191   
     32640   1.1900121     -0.4803628      0.70953031     0.22941316   
     32650   1.1894241     -0.48339623     0.70590896     0.21912005   
     32660   1.1889541     -0.48505046     0.70378479     0.20869233   
     32670   1.1794437     -0.47835745     0.70096826     0.22983433   
     32680   1.1755926     -0.48078625     0.69468876     0.22439378   
     32690   1.1708716     -0.48621328     0.68454119     0.21830732   
     32700   1.171079      -0.48419842     0.68676345     0.22255907   
     32710   1.1725732     -0.48210024     0.69035571     0.22087558   
     32720   1.1729121     -0.47905848     0.69373629     0.22758986   
     32730   1.1750956     -0.48761118     0.68736689     0.21691787   
     32740   1.1702755     -0.49326693     0.67689153     0.20584575   
     32750   1.1634986     -0.48335157     0.68003069     0.22148674   
     32760   1.1677843     -0.48837995     0.67928761     0.20662129   
     32770   1.1728311     -0.48880488     0.68390892     0.20902992   
     32780   1.1775382     -0.49104588     0.68637453     0.20505924   
     32790   1.1768174     -0.48615988     0.69053987     0.21274508   
     32800   1.1762881     -0.4908906      0.68527982     0.21327614   
     32810   1.1672825     -0.48981915     0.67734657     0.22356619   
     32820   1.1612542     -0.49312965     0.66800845     0.21533423   
     32830   1.1677858     -0.49413147     0.67353758     0.21625432   
     32840   1.1693486     -0.49330943     0.67592223     0.21526131   
     32850   1.1662064     -0.4920046      0.6740852      0.21417647   
     32860   1.1704353     -0.49330522     0.67701302     0.21376914   
     32870   1.1688765     -0.48745708     0.68130255     0.22395133   
     32880   1.1612471     -0.48864378     0.67248715     0.22140374   
     32890   1.1561733     -0.48217534     0.6738823      0.23202832   
     32900   1.1673889     -0.48607661     0.68119551     0.21315598   
     32910   1.1703583     -0.49069267     0.67954862     0.20159791   
     32920   1.1668224     -0.4814462      0.68525955     0.22780014   
     32930   1.1643818     -0.48645953     0.67780584     0.22231917   
     32940   1.1642616     -0.48964303     0.67450214     0.21647953   
     32950   1.1580813     -0.48230936     0.67565613     0.22971483   
     32960   1.1597572     -0.48771215     0.67192904     0.21637735   
     32970   1.1557437     -0.48473191     0.67089619     0.22126974   
     32980   1.1499635     -0.48660113     0.66324739     0.21395854   
     32990   1.1545109     -0.48777049     0.66662499     0.21777571   
     33000   1.1599769     -0.49323489     0.66662606     0.20708554   
     33010   1.1550833     -0.48316904     0.67179879     0.23052236   
     33020   1.161259      -0.49097311     0.6701698      0.20982836   
     33030   1.1556869     -0.48957322     0.66599815     0.21189251   
     33040   1.1531468     -0.48726789     0.66576358     0.21861647   
     33050   1.1579948     -0.48273643     0.67514259     0.22234794   
     33060   1.1660394     -0.48132362     0.68459922     0.22701055   
     33070   1.1705724     -0.48198872     0.68846662     0.21761801   
     33080   1.1719359     -0.48568392     0.68613475     0.20790951   
     33090   1.1695817     -0.47716221     0.69230252     0.23495814   
     33100   1.1712655     -0.4816121      0.68953629     0.22459768   
     33110   1.1707771     -0.4801296      0.69053045     0.22600347   
     33120   1.1706569     -0.48635189     0.68418796     0.21837462   
     33130   1.1705313     -0.48048525     0.68992896     0.2228886    
     33140   1.1707897     -0.48304671     0.68762596     0.21729595   
     33150   1.1670335     -0.48312386     0.68379292     0.22066208   
     33160   1.1640184     -0.48028951     0.68361245     0.22015118   
     33170   1.1603187     -0.48403415     0.67616851     0.21503979   
     33180   1.1570467     -0.47951079     0.67742016     0.22141773   
     33190   1.1553491     -0.4821276      0.67310602     0.22126243   
     33200   1.1459602     -0.48466196     0.66118365     0.21805634   
     33210   1.1406567     -0.48430196     0.65624064     0.21791842   
     33220   1.1389346     -0.47749577     0.6613249      0.22416503   
     33230   1.137434      -0.4819883      0.65533192     0.20154654   
     33240   1.1408959     -0.48833962     0.65244217     0.18677304   
     33250   1.1319155     -0.47862707     0.65317522     0.21717753   
     33260   1.1261454     -0.48166986     0.64436294     0.22037061   
     33270   1.1366802     -0.49010065     0.64646583     0.21395421   
     33280   1.1363226     -0.49229839     0.64391056     0.21309359   
     33290   1.1321528     -0.48469303     0.64734655     0.22504156   
     33300   1.1440522     -0.49295531     0.65098245     0.21439421   
     33310   1.1412642     -0.48621394     0.65493616     0.2153397    
     33320   1.1435719     -0.49108771     0.65236987     0.1994233    
     33330   1.1448041     -0.48684405     0.65784561     0.20455156   
     33340   1.1465308     -0.49435281     0.65206337     0.1968782    
     33350   1.1362241     -0.47983909     0.65627141     0.22466938   
     33360   1.139543      -0.48706561     0.65236343     0.21222578   
     33370   1.1359289     -0.48564506     0.65017027     0.21762388   
     33380   1.1372078     -0.49068291     0.6464112      0.20705952   
     33390   1.1376515     -0.49003277     0.64750501     0.21495407   
     33400   1.1414888     -0.48805806     0.65331656     0.20877823   
     33410   1.1420028     -0.48874311     0.65314552     0.20523514   
     33420   1.1416866     -0.48504985     0.65652258     0.21068124   
     33430   1.1381283     -0.48350144     0.65451307     0.21304514   
     33440   1.137489      -0.48757096     0.64980425     0.20130877   
     33450   1.1383248     -0.48949095     0.64872003     0.20682742   
     33460   1.1392334     -0.48474053     0.65437899     0.21505364   
     33470   1.1354401     -0.48605694     0.64926958     0.21465842   
     33480   1.1372518     -0.47959944     0.65753859     0.22710724   
     33490   1.1373591     -0.4779607      0.65928466     0.21932541   
     33500   1.1486843     -0.48497636     0.6635931      0.20534327   
     33510   1.1445865     -0.48032571     0.66414638     0.21614164   
     33520   1.1426628     -0.47788406     0.66466447     0.21667587   
     33530   1.1487998     -0.49052329     0.65816167     0.20512777   
     33540   1.145446      -0.48049992     0.66483158     0.22766172   
     33550   1.1487054     -0.48300906     0.66558151     0.22461056   
     33560   1.1541032     -0.48918601     0.66480181     0.20667034   
     33570   1.15455       -0.47559982     0.67883471     0.23446371   
     33580   1.1588227     -0.48367332     0.6750335      0.2079078    
     33590   1.1544473     -0.4852961      0.66903577     0.2000379    
     33600   1.1495023     -0.48404959     0.6653378      0.20803305   
     33610   1.1402987     -0.48232072     0.65786392     0.21651102   
     33620   1.1456837     -0.4893975      0.65617162     0.21353752   
     33630   1.1386158     -0.48230145     0.65620045     0.2211759    
     33640   1.1346193     -0.48519084     0.64931495     0.21175027   
     33650   1.1325582     -0.48870164     0.64374332     0.21222955   
     33660   1.1298941     -0.48304876     0.64673234     0.22893391   
     33670   1.1336523     -0.48821071     0.6453282      0.20362676   
     33680   1.1279144     -0.48557137     0.64223025     0.20778267   
     33690   1.1280796     -0.48554009     0.64242666     0.20082403   
     33700   1.1349674     -0.4866623      0.6481916      0.20651547   
     33710   1.1308246     -0.4875703      0.64314123     0.20935184   
     33720   1.1244262     -0.4897587      0.63455506     0.20707793   
     33730   1.121016      -0.49030625     0.6305977      0.20631525   
     33740   1.1244622     -0.48924874     0.63510099     0.20379383   
     33750   1.122492      -0.48562226     0.63675748     0.21516786   
     33760   1.1236357     -0.48720775     0.63631561     0.20704509   
     33770   1.1321489     -0.49006432     0.64197133     0.19017648   
     33780   1.1377455     -0.48987137     0.64776034     0.1931409    
     33790   1.1363973     -0.48434991     0.65193378     0.20037359   
     33800   1.1346863     -0.48601106     0.64856173     0.2011693    
     33810   1.136958      -0.48384447     0.65299982     0.20442783   
     33820   1.1367486     -0.48762489     0.64901008     0.20797667   
     33830   1.1380443     -0.48555064     0.65237984     0.21614414   
     33840   1.1379168     -0.49500575     0.64279723     0.19683838   
     33850   1.1344456     -0.49146468     0.64286748     0.21245157   
     33860   1.1342112     -0.48555094     0.64854678     0.22216205   
     33870   1.1374596     -0.48984923     0.64749663     0.21969364   
     33880   1.1425715     -0.49441603     0.64804118     0.20133394   
     33890   1.1421392     -0.49306018     0.6489648      0.20182198   
     33900   1.1387453     -0.49049631     0.64813514     0.21333743   
     33910   1.1411471     -0.49038621     0.65064681     0.2124318    
     33920   1.1345804     -0.48897808     0.64548886     0.21611514   
     33930   1.1327886     -0.4886356      0.64403972     0.22281514   
     33940   1.1472009     -0.49947524     0.64761094     0.19990473   
     33950   1.139076      -0.48746495     0.65149716     0.22947241   
     33960   1.1359723     -0.48967705     0.64618164     0.22189029   
     33970   1.1294986     -0.49058859     0.63879708     0.21501979   
     33980   1.1219831     -0.48670469     0.6351662      0.22450564   
     33990   1.1222895     -0.48809391     0.63408337     0.21762935   
     34000   1.1154964     -0.48449003     0.63089484     0.21635188   
     34010   1.1196802     -0.49620985     0.62335837     0.19262763   
     34020   1.1109333     -0.48724528     0.62357692     0.20347273   
     34030   1.1115083     -0.48905041     0.62234675     0.19934409   
     34040   1.109534      -0.48116805     0.62825502     0.20974761   
     34050   1.1147225     -0.48706547     0.62754559     0.20344927   
     34060   1.1187174     -0.49157998     0.62702557     0.19757428   
     34070   1.1119647     -0.48419913     0.62765438     0.21231042   
     34080   1.1096978     -0.48731367     0.62227318     0.21153649   
     34090   1.1133777     -0.49070797     0.62255836     0.20522485   
     34100   1.1087529     -0.4853821      0.62325996     0.22904636   
     34110   1.1092613     -0.49099469     0.61815564     0.2191407    
     34120   1.1004636     -0.49044287     0.60991066     0.21619363   
     34130   1.1036061     -0.49711443     0.60638126     0.1994359    
     34140   1.1069203     -0.49382406     0.61298558     0.20224096   
     34150   1.1050059     -0.48854235     0.61635307     0.20937178   
     34160   1.1031858     -0.49144789     0.61162763     0.20370432   
     34170   1.1037344     -0.49386875     0.60975527     0.19782878   
     34180   1.1038009     -0.48931624     0.61437426     0.20346313   
     34190   1.1120623     -0.48992935     0.62202179     0.20757454   
     34200   1.1189757     -0.4923172      0.62654659     0.2027304    
     34210   1.1219574     -0.48949142     0.6323538      0.21192102   
     34220   1.1239924     -0.49179044     0.63208959     0.20629672   
     34230   1.1188427     -0.4901379      0.6285929      0.21878625   
     34240   1.1231624     -0.49691294     0.62613714     0.20754424   
     34250   1.1234692     -0.49183399     0.63152282     0.21152124   
     34260   1.1210993     -0.48963105     0.6313561      0.21585008   
     34270   1.1233034     -0.50172563     0.6214654      0.19446344   
     34280   1.1172149     -0.48934124     0.62776194     0.2209749    
     34290   1.1242153     -0.49386512     0.63023773     0.21353522   
     34300   1.1272285     -0.49826786     0.6288479      0.20029942   
     34310   1.1271595     -0.49982627     0.62722053     0.19445272   
     34320   1.1283768     -0.49738879     0.63087517     0.20096216   
     34330   1.1349873     -0.50180661     0.6330672      0.20649091   
     34340   1.1383514     -0.50222587     0.63601173     0.20583383   
     34350   1.1400682     -0.50287493     0.63707925     0.20342442   
     34360   1.1366795     -0.4997325      0.63683332     0.21057806   
     34370   1.128651      -0.49741309     0.63112502     0.20509559   
     34380   1.1236614     -0.50175037     0.62179862     0.20132952   
     34390   1.1165749     -0.50402978     0.61243346     0.19588188   
     34400   1.1053304     -0.48896217     0.61625766     0.2246456    
     34410   1.1057969     -0.49366654     0.61201982     0.20225625   
     34420   1.1001702     -0.49400553     0.60605467     0.1976279    
     34430   1.0989656     -0.49635629     0.60249941     0.19690423   
     34440   1.098448      -0.5010483      0.59728985     0.20236114   
     34450   1.0939511     -0.50252153     0.59132016     0.20159685   
     34460   1.0893466     -0.49717602     0.59206165     0.21452823   
     34470   1.0959461     -0.50019234     0.59564419     0.20476846   
     34480   1.1034869     -0.49781788     0.60555863     0.21322663   
     34490   1.106379      -0.50475651     0.60151188     0.20866117   
     34500   1.1083481     -0.50929894     0.59893835     0.1984515    
     34510   1.1034422     -0.50089036     0.60244152     0.21455359   
     34520   1.1043777     -0.50646035     0.59780693     0.20015006   
     34530   1.0978628     -0.49788952     0.59986353     0.22111379   
     34540   1.1034687     -0.50307126     0.60028709     0.20899533   
     34550   1.0976531     -0.50103379     0.59650952     0.20755959   
     34560   1.0960971     -0.49842456     0.59756289     0.19984841   
     34570   1.1047209     -0.49872443     0.60588603     0.19680021   
     34580   1.1033606     -0.49834879     0.60490144     0.1971366    
     34590   1.099633      -0.50076392     0.59875916     0.19378526   
     34600   1.101764      -0.50040424     0.60124954     0.20120768   
     34610   1.1079049     -0.50322515     0.60456892     0.19970419   
     34620   1.1089614     -0.50594813     0.60290243     0.19119477   
     34630   1.1124797     -0.50132947     0.61103898     0.19864242   
     34640   1.1078935     -0.50363926     0.60414346     0.19204069   
     34650   1.1040248     -0.49966485     0.60424957     0.20159577   
     34660   1.1080821     -0.50554468     0.60242661     0.19873557   
     34670   1.1043962     -0.49280041     0.6114854      0.21652004   
     34680   1.1102841     -0.50323321     0.60693989     0.19196409   
     34690   1.1072436     -0.49659156     0.61054136     0.20920129   
     34700   1.1053789     -0.49363032     0.61163806     0.21269555   
     34710   1.1062074     -0.50003172     0.60606508     0.19452449   
     34720   1.0975749     -0.49325634     0.60420879     0.20614776   
     34730   1.0970907     -0.49456595     0.60241506     0.21002372   
     34740   1.0939016     -0.49325674     0.60053549     0.21336955   
     34750   1.0954457     -0.49549674     0.59983941     0.20988472   
     34760   1.0986898     -0.49623702     0.60234289     0.20579867   
     34770   1.0974556     -0.49506022     0.60228563     0.20532729   
     34780   1.0939407     -0.49409591     0.59973542     0.20539962   
     34790   1.0922044     -0.49154383     0.60055131     0.20885603   
     34800   1.0932054     -0.4974887      0.59560742     0.19461668   
     34810   1.0919096     -0.49705411     0.59474629     0.19392565   
     34820   1.091435      -0.49328539     0.59804043     0.19523889   
     34830   1.0869987     -0.49715354     0.58973648     0.18938545   
     34840   1.0823468     -0.49922247     0.5830161      0.18562954   
     34850   1.0759124     -0.49482638     0.58097847     0.20072532   
     34860   1.0721514     -0.4963819      0.5756623      0.20024457   
     34870   1.0700481     -0.49658301     0.57335812     0.1957436    
     34880   1.0731607     -0.50226348     0.57078995     0.19295515   
     34890   1.0717848     -0.49617181     0.57550579     0.20652607   
     34900   1.0717146     -0.50240503     0.56920236     0.19182497   
     34910   1.0690925     -0.49911973     0.56986589     0.18854839   
     34920   1.0823237     -0.50405269     0.57816281     0.18505718   
     34930   1.0811369     -0.5053313      0.57569745     0.18853065   
     34940   1.0803868     -0.50162545     0.57865328     0.20468424   
     34950   1.0855101     -0.50609032     0.57931119     0.19683012   
     34960   1.0889835     -0.50917674     0.5796979      0.18341088   
     34970   1.0838177     -0.50750866     0.57620067     0.18939396   
     34980   1.0776502     -0.50251732     0.57502506     0.19996407   
     34990   1.0738668     -0.50487803     0.56888135     0.19701875   
     35000   1.0773693     -0.4975612      0.57970033     0.21071256   
     35010   1.0872512     -0.51025846     0.57688401     0.18704328   
     35020   1.0950206     -0.5116187      0.58329239     0.18221011   
     35030   1.0950574     -0.50976251     0.58518538     0.19363779   
     35040   1.0896648     -0.50359009     0.58596579     0.21166085   
     35050   1.0894972     -0.50850653     0.58088176     0.20593877   
     35060   1.0868941     -0.50706765     0.57971775     0.21480506   
     35070   1.0934524     -0.5096321      0.58371096     0.21261112   
     35080   1.0908918     -0.51044581     0.58033686     0.19948894   
     35090   1.0879486     -0.50684517     0.58099461     0.199831     
     35100   1.0933991     -0.50414191     0.58914783     0.20731737   
     35110   1.0997628     -0.5035706      0.59608226     0.20499915   
     35120   1.1077016     -0.50667073     0.6009201      0.19845056   
     35130   1.1134146     -0.50664249     0.60666081     0.19809254   
     35140   1.1083274     -0.50216551     0.60605104     0.20776039   
     35150   1.1085448     -0.50820011     0.60023386     0.19563148   
     35160   1.1055034     -0.50323001     0.60216281     0.20405526   
     35170   1.1065614     -0.51008564     0.59636509     0.1955932    
     35180   1.1052957     -0.50780481     0.59738032     0.19857008   
     35190   1.1068255     -0.50610306     0.60061179     0.20265352   
     35200   1.1098495     -0.50897425     0.60076429     0.19500338   
     35210   1.1022936     -0.50858874     0.59359464     0.1997728    
     35220   1.0980041     -0.50311731     0.59477694     0.20996572   
     35230   1.1021061     -0.51217502     0.58982083     0.19523187   
     35240   1.0946709     -0.50592915     0.58863231     0.20592257   
     35250   1.0949004     -0.50980254     0.58498836     0.2063824    
     35260   1.0887871     -0.50911881     0.57955938     0.20819976   
     35270   1.0846701     -0.51518657     0.56937507     0.19160923   
     35280   1.0812332     -0.50936566     0.57175942     0.19378015   
     35290   1.0846114     -0.50890858     0.57559441     0.19585314   
     35300   1.0796786     -0.50402047     0.57555017     0.20176234   
     35310   1.0742933     -0.50376916     0.57041667     0.1986622    
     35320   1.0705995     -0.50868974     0.56180275     0.19753074   
     35330   1.0639256     -0.51040276     0.55341648     0.18742161   
     35340   1.0643958     -0.50942538     0.55486394     0.18323715   
     35350   1.0650891     -0.51380774     0.55117481     0.18011666   
     35360   1.0593676     -0.50670305     0.55255859     0.19631979   
     35370   1.0613524     -0.51036585     0.55088045     0.1892293    
     35380   1.0655825     -0.50824567     0.55723026     0.19409493   
     35390   1.0678123     -0.50936737     0.55833814     0.19467983   
     35400   1.063193      -0.5085525      0.5545342      0.20384069   
     35410   1.0668459     -0.51424484     0.55249433     0.19656271   
     35420   1.0650671     -0.5127613      0.55219925     0.19344162   
     35430   1.0668592     -0.51391222     0.55284033     0.18498177   
     35440   1.0644278     -0.5118839      0.55243742     0.19400328   
     35450   1.0621894     -0.51029463     0.55178855     0.19525986   
     35460   1.0614024     -0.50605955     0.55523673     0.20398671   
     35470   1.0602771     -0.50865814     0.55151293     0.19701746   
     35480   1.0581594     -0.50893268     0.5491209      0.18952932   
     35490   1.0524235     -0.50227759     0.55004061     0.19184412   
     35500   1.0586825     -0.5085802      0.54999642     0.18378014   
     35510   1.0578964     -0.50396084     0.55382976     0.20479251   
     35520   1.0589386     -0.51281209     0.54602058     0.19004332   
     35530   1.0502263     -0.50815755     0.54196373     0.19109516   
     35540   1.0509416     -0.50735116     0.54348539     0.19593441   
     35550   1.0568108     -0.50912506     0.54758008     0.19577646   
     35560   1.0549767     -0.50751324     0.547358       0.20779516   
     35570   1.0578578     -0.51438966     0.54336234     0.2012623    
     35580   1.0622386     -0.51207325     0.55005912     0.19669365   
     35590   1.0661926     -0.51262906     0.55345691     0.19387541   
     35600   1.0623997     -0.50861806     0.55367539     0.20316923   
     35610   1.0620498     -0.50802703     0.55391658     0.20112213   
     35620   1.0652874     -0.50894545     0.55623541     0.19160615   
     35630   1.0634398     -0.5075303      0.55580321     0.18776278   
     35640   1.0662794     -0.50727591     0.55889685     0.18315519   
     35650   1.0619966     -0.50364607     0.55824436     0.19413791   
     35660   1.061949      -0.50858742     0.5532554      0.18321335   
     35670   1.0601989     -0.50355082     0.55654208     0.19577185   
     35680   1.0622735     -0.50710664     0.55506067     0.18946621   
     35690   1.0607193     -0.50452522     0.556088       0.20006323   
     35700   1.0679231     -0.51005242     0.55776391     0.19174797   
     35710   1.0612193     -0.50405778     0.55705543     0.19873984   
     35720   1.0573911     -0.50813088     0.54915446     0.18990457   
     35730   1.0510909     -0.5067311      0.54425464     0.20102825   
     35740   1.0453016     -0.50410787     0.54108918     0.19988746   
     35750   1.0410573     -0.49998656     0.54096659     0.19109303   
     35760   1.0482926     -0.50268425     0.5455035      0.19162321   
     35770   1.0544573     -0.51112998     0.54322186     0.17531289   
     35780   1.049276      -0.50560895     0.54356211     0.18812482   
     35790   1.0489371     -0.50541413     0.54341811     0.20065087   
     35800   1.0446976     -0.50183159     0.54276152     0.20623124   
     35810   1.0450278     -0.50655329     0.53836999     0.18674155   
     35820   1.0486243     -0.51191861     0.53660081     0.17269119   
     35830   1.0463113     -0.51050848     0.53569822     0.18193647   
     35840   1.0439482     -0.50639133     0.53745251     0.18984654   
     35850   1.03945       -0.50663082     0.53271526     0.18632736   
     35860   1.0391573     -0.50733457     0.53171885     0.18195837   
     35870   1.044128      -0.50935398     0.5346696      0.18759499   
     35880   1.0466886     -0.51169467     0.53488925     0.18645561   
     35890   1.0456447     -0.51344958     0.53209054     0.18933265   
     35900   1.0463918     -0.50819062     0.53809652     0.19352614   
     35910   1.0477904     -0.50553914     0.54214644     0.19850178   
     35920   1.0504543     -0.5115711      0.53877812     0.19017034   
     35930   1.0548714     -0.50792193     0.54684397     0.21065842   
     35940   1.0626109     -0.51623984     0.5462648      0.19083399   
     35950   1.0680711     -0.51928902     0.54867529     0.18088997   
     35960   1.0647647     -0.51087672     0.55378146     0.19654862   
     35970   1.0649444     -0.50782267     0.55701524     0.20730189   
     35980   1.0696927     -0.51402849     0.55555729     0.1968392    
     35990   1.0658573     -0.51378408     0.55196667     0.19253981   
     36000   1.0650501     -0.5170763      0.54786729     0.18797454   
     36010   1.0642883     -0.51291479     0.55126706     0.19498277   
     36020   1.0691455     -0.5158091      0.55322945     0.18653612   
     36030   1.0668045     -0.51246772     0.55423011     0.17975706   
     36040   1.0648247     -0.50741853     0.55729972     0.18594151   
     36050   1.0676274     -0.50125697     0.56626366     0.20385748   
     36060   1.0791707     -0.50835968     0.57070309     0.19076241   
     36070   1.071978      -0.50502649     0.56684432     0.19996468   
     36080   1.0747946     -0.51125352     0.56343364     0.19192038   
     36090   1.072634      -0.50874768     0.56377902     0.18517567   
     36100   1.076021      -0.51337821     0.56253521     0.18353888   
     36110   1.074284      -0.51162786     0.56254873     0.1995316    
     36120   1.0686369     -0.51215236     0.55637765     0.19100178   
     36130   1.0625258     -0.50886552     0.553554       0.19338498   
     36140   1.0577845     -0.51486054     0.54281819     0.1806003    
     36150   1.0565242     -0.51229206     0.54412647     0.19243597   
     36160   1.0539436     -0.51587084     0.5379674      0.18787518   
     36170   1.0479409     -0.50971745     0.53811862     0.19601586   
     36180   1.0440481     -0.51127693     0.53266675     0.19358802   
     36190   1.0387151     -0.50228966     0.53632153     0.20210739   
     36200   1.0437139     -0.50728076     0.53632877     0.18413621   
     36210   1.0415331     -0.50781598     0.53361298     0.18208573   
     36220   1.0391351     -0.51339533     0.52563586     0.17835768   
     36230   1.0328477     -0.50963173     0.52311272     0.19348468   
     36240   1.0364658     -0.51032898     0.52603316     0.1932684    
     36250   1.0402916     -0.51492616     0.52526143     0.17608326   
     36260   1.0329722     -0.51170916     0.52115976     0.18377564   
     36270   1.0361804     -0.50943547     0.52664132     0.18737144   
     36280   1.0454703     -0.51750529     0.52786042     0.17314722   
     36290   1.0394088     -0.51504814     0.5242567      0.18470992   
     36300   1.0353011     -0.51317741     0.52202019     0.18967234   
     36310   1.0338275     -0.51069709     0.52302698     0.19012798   
     36320   1.0414594     -0.5163509      0.52500431     0.16934405   
     36330   1.0402242     -0.51229102     0.52782916     0.17432438   
     36340   1.0337372     -0.51252457     0.52110929     0.18357281   
     36350   1.0290494     -0.5071092      0.52183731     0.19215909   
     36360   1.0329096     -0.51501802     0.51778826     0.1769201    
     36370   1.0337715     -0.51158011     0.52208796     0.18305869   
     36380   1.0312632     -0.51209407     0.51906602     0.18175422   
     36390   1.0267873     -0.50419424     0.52249038     0.19648216   
     36400   1.0312893     -0.51384318     0.51734298     0.1771176    
     36410   1.0340073     -0.51058949     0.52331444     0.18868257   
     36420   1.0346444     -0.51440546     0.52013548     0.18433007   
     36430   1.0338844     -0.51370551     0.52007546     0.18754159   
     36440   1.0333059     -0.51810855     0.51509405     0.18340195   
     36450   1.0336481     -0.51088023     0.52266447     0.20568601   
     36460   1.0328338     -0.51452286     0.51820767     0.18799406   
     36470   1.0373985     -0.51438746     0.52290729     0.18126557   
     36480   1.0368647     -0.51313978     0.52362119     0.17733515   
     36490   1.0356654     -0.51002008     0.52554177     0.18550601   
     36500   1.0390938     -0.50790912     0.53108081     0.18906367   
     36510   1.0417811     -0.51367076     0.52800621     0.17710675   
     36520   1.0410948     -0.51341419     0.52757652     0.18259607   
     36530   1.0416414     -0.51418582     0.52735144     0.1905808    
     36540   1.0314657     -0.5122557      0.51910683     0.1880391    
     36550   1.0326335     -0.51643579     0.51609441     0.18080105   
     36560   1.0301117     -0.51665017     0.5133585      0.18753817   
     36570   1.0250738     -0.52136804     0.50360321     0.18001274   
     36580   1.0231374     -0.52168543     0.50134968     0.19055339   
     36590   1.0246778     -0.52369547     0.50087986     0.19978597   
     36600   1.025655      -0.52957333     0.49597908     0.18211447   
     36610   1.022912      -0.52941965     0.49339006     0.1861931    
     36620   1.0156115     -0.52540886     0.49010112     0.19466076   
     36630   1.0131671     -0.52907911     0.48398664     0.1880699    
     36640   1.0099673     -0.52930951     0.48055681     0.18312159   
     36650   1.0102872     -0.53196393     0.47822227     0.17512356   
     36660   1.009267      -0.52865724     0.48050885     0.17960705   
     36670   1.0113841     -0.52878788     0.48249508     0.17864731   
     36680   1.0136234     -0.52622242     0.48729964     0.17775958   
     36690   1.0173143     -0.52366322     0.49354936     0.1818707    
     36700   1.0241022     -0.52879715     0.49520263     0.17855249   
     36710   1.0185197     -0.52717901     0.4912388      0.17631564   
     36720   1.0206192     -0.52656917     0.49394795     0.17516934   
     36730   1.0206966     -0.52375634     0.49683819     0.177641     
     36740   1.0221604     -0.52933993     0.49271828     0.16915226   
     36750   1.0188038     -0.52991203     0.48878985     0.17137588   
     36760   1.0187333     -0.52607671     0.49255473     0.18250731   
     36770   1.0146884     -0.52035424     0.49423267     0.19433937   
     36780   1.0203309     -0.52918997     0.49103893     0.18007962   
     36790   1.0178455     -0.5230094      0.49473429     0.18961459   
     36800   1.0163744     -0.52330402     0.49296872     0.18932901   
     36810   1.0210799     -0.52721364     0.49376411     0.18571503   
     36820   1.0257618     -0.52967958     0.49597966     0.17628943   
     36830   1.0258123     -0.52603668     0.499673       0.17752055   
     36840   1.0306026     -0.52397263     0.50652689     0.18851357   
     36850   1.0288237     -0.51904574     0.50967507     0.1924893    
     36860   1.0254284     -0.5235596      0.50176631     0.18225261   
     36870   1.0241435     -0.52505915     0.49898191     0.18014409   
     36880   1.0254116     -0.52939877     0.49591031     0.16769772   
     36890   1.0251448     -0.52594164     0.49910067     0.17370848   
     36900   1.0321181     -0.52654351     0.50547137     0.1761505    
     36910   1.030041      -0.523483       0.506455       0.17714998   
     36920   1.0218041     -0.51977961     0.50192226     0.18641811   
     36930   1.0233872     -0.52640375     0.49688112     0.16865808   
     36940   1.0198219     -0.52580733     0.49391261     0.17583222   
     36950   1.0221957     -0.52004024     0.50205327     0.19437718   
     36960   1.0225881     -0.52239312     0.50009269     0.18710678   
     36970   1.0184634     -0.52354038     0.49482119     0.18108359   
     36980   1.0170457     -0.5272291      0.48971487     0.17572208   
     36990   1.0188214     -0.52804418     0.49067537     0.18051097   
     37000   1.0089841     -0.52081098     0.48807227     0.19962914   
     37010   1.0146063     -0.53019441     0.48431045     0.17457659   
     37020   1.0079208     -0.5262205      0.48159946     0.17936927   
     37030   1.0033054     -0.52214789     0.48105721     0.18025656   
     37040   1.0040654     -0.5262981      0.47766693     0.16763884   
     37050   1.0027291     -0.52354884     0.47908002     0.17783319   
     37060   1.0037042     -0.52638948     0.4772143      0.18349218   
     37070   1.0011337     -0.5260112      0.47502239     0.19164823   
     37080   0.99964806    -0.52495199     0.47459611     0.19106452   
     37090   1.003271      -0.53312634     0.47004428     0.16005413   
     37100   1.0050315     -0.52769383     0.47723722     0.17628801   
     37110   1.002752      -0.52527841     0.47737335     0.18715917   
     37120   1.0067136     -0.52651499     0.48009791     0.18312527   
     37130   1.005021      -0.52085309     0.48406743     0.18776852   
     37140   1.0067514     -0.525803       0.48084774     0.1796356    
     37150   1.0065727     -0.52952803     0.47694404     0.17028121   
     37160   1.0015916     -0.52528668     0.4762048      0.17387724   
     37170   0.99947531    -0.52930696     0.4700684      0.1605948    
     37180   1.0061842     -0.53080185     0.47528171     0.16082699   
     37190   1.0102332     -0.52982667     0.48030547     0.17051462   
     37200   1.0065831     -0.52889506     0.47758739     0.17626606   
     37210   1.0039679     -0.52940264     0.47446485     0.1790629    
     37220   1.0068029     -0.53431583     0.47238636     0.18070968   
     37230   1.0136693     -0.53119893     0.48236901     0.18549833   
     37240   1.0186898     -0.53004099     0.48854698     0.18510192   
     37250   1.0155216     -0.53383206     0.48158803     0.17290553   
     37260   1.0113276     -0.5324735      0.47875297     0.18341923   
     37270   1.0094034     -0.52707688     0.4822256      0.18743668   
     37280   1.0108626     -0.52938164     0.48137984     0.17579684   
     37290   1.0134583     -0.53148269     0.48187422     0.17172447   
     37300   1.0151194     -0.53437612     0.48064178     0.17324424   
     37310   1.00887       -0.52919424     0.47957485     0.18498231   
     37320   1.006682      -0.53851491     0.46806647     0.16433633   
     37330   1.0029607     -0.5319822      0.47087825     0.17749754   
     37340   1.0010854     -0.52900224     0.47198309     0.18479738   
     37350   1.0004667     -0.53154508     0.46882153     0.17813524   
     37360   0.99565583    -0.52975218     0.46580409     0.18791952   
     37370   0.99220713    -0.53743121     0.4546767      0.17063569   
     37380   0.99206333    -0.53288042     0.4590837      0.17348322   
     37390   0.99372901    -0.53338328     0.46024635     0.1660493    
     37400   0.99506795    -0.52559396     0.46937448     0.17253721   
     37410   0.99838823    -0.5310691      0.4672193      0.16475426   
     37420   0.99020185    -0.52580061     0.46430223     0.16955451   
     37430   0.98842855    -0.52728701     0.4610427      0.16570697   
     37440   0.98577242    -0.52619798     0.45947586     0.16848757   
     37450   0.98407308    -0.52554079     0.45843388     0.17383329   
     37460   0.98130214    -0.52620016     0.45500385     0.17515622   
     37470   0.98345874    -0.5253025      0.45805789     0.17866725   
     37480   0.9835748     -0.52461113     0.45886532     0.17614697   
     37490   0.98858189    -0.53481659     0.45366644     0.16520573   
     37500   0.9859771     -0.53547849     0.45040002     0.16857445   
     37510   0.98533888    -0.53045987     0.45478048     0.16916686   
     37520   0.9863484     -0.53115285     0.45509691     0.16963844   
     37530   0.98902379    -0.53087371     0.45805118     0.1729659    
     37540   0.981916      -0.52626024     0.45555757     0.17777131   
     37550   0.98119607    -0.52794778     0.45315017     0.17775289   
     37560   0.98367525    -0.52550887     0.45806801     0.17867334   
     37570   0.99287198    -0.53470771     0.45806498     0.15925976   
     37580   0.99329196    -0.52948703     0.4637056      0.17326587   
     37590   0.99398326    -0.53012842     0.46375544     0.17670626   
     37600   0.99569432    -0.53012919     0.46546556     0.17431326   
     37610   0.99541571    -0.53203489     0.46328127     0.16800505   
     37620   0.99100074    -0.53450682     0.45639482     0.16108399   
     37630   0.98780399    -0.53633351     0.4513717      0.16872717   
     37640   0.9850019     -0.52871701     0.45618639     0.18805888   
     37650   0.99438622    -0.53513072     0.45915606     0.18641725   
     37660   0.99639775    -0.53971658     0.45658153     0.18017303   
     37670   0.99290272    -0.53263229     0.46017114     0.19108978   
     37680   0.99374644    -0.53246134     0.46118573     0.17879525   
     37690   0.99730412    -0.53624494     0.46095946     0.17215255   
     37700   0.99248482    -0.53548646     0.45689912     0.17767018   
     37710   0.99486627    -0.53660338     0.4581634      0.17521052   
     37720   0.99901773    -0.54197276     0.45694507     0.16721216   
     37730   0.98852642    -0.5362718      0.45215576     0.17378509   
     37740   0.98752555    -0.53648035     0.45094645     0.17450761   
     37750   0.98137727    -0.53945428     0.44182485     0.17751653   
     37760   0.97755219    -0.53824655     0.43920789     0.17922185   
     37770   0.9740228     -0.53599595     0.43792944     0.18241131   
     37780   0.96680893    -0.53430547     0.43240677     0.17103646   
     37790   0.96448919    -0.53502135     0.42937139     0.171382     
     37800   0.96298151    -0.53517932     0.42770589     0.17359353   
     37810   0.96690143    -0.53991952     0.42688523     0.17002482   
     37820   0.9615567     -0.5330217      0.42843884     0.17924254   
     37830   0.96324427    -0.53510536     0.42804258     0.17772026   
     37840   0.97128167    -0.53745405     0.43373049     0.1763298    
     37850   0.98030729    -0.54480668     0.43540258     0.15565252   
     37860   0.97679175    -0.54103492     0.43565915     0.16265743   
     37870   0.97325648    -0.53927885     0.43388031     0.16489781   
     37880   0.96670292    -0.53535592     0.43125033     0.17506604   
     37890   0.97242922    -0.54075333     0.43157864     0.15449512   
     37900   0.97657657    -0.53699742     0.43948149     0.15917033   
     37910   0.97179275    -0.53354856     0.43814701     0.17947746   
     37920   0.96900546    -0.53610319     0.43280537     0.17510256   
     37930   0.96778847    -0.53628398     0.43140771     0.17550404   
     37940   0.9732168     -0.54164707     0.43147241     0.16257246   
     37950   0.97143083    -0.53683277     0.43450091     0.17452761   
     37960   0.97334661    -0.53447606     0.43877322     0.17955303   
     37970   0.9760929     -0.53725997     0.43873532     0.16964521   
     37980   0.97709627    -0.53179805     0.4452005      0.17971124   
     37990   0.9736129     -0.53920925     0.43430629     0.16548691   
     38000   0.96974355    -0.52865348     0.44099309     0.18058419   
     38010   0.97570282    -0.53090882     0.44469643     0.17317188   
     38020   0.97653507    -0.53420693     0.44223049     0.1630201    
     38030   0.97687782    -0.53018184     0.44659829     0.17909503   
     38040   0.98140131    -0.53269433     0.44860884     0.17530445   
     38050   0.98105103    -0.529708       0.45124492     0.17841213   
     38060   0.97550268    -0.5294533      0.44595183     0.18009439   
     38070   0.97477852    -0.53378006     0.44090098     0.16463686   
     38080   0.97543692    -0.53170166     0.44363772     0.16255285   
     38090   0.97428172    -0.52961982     0.44456447     0.16664427   
     38100   0.97800098    -0.53794998     0.43995321     0.14932323   
     38110   0.96981518    -0.53422623     0.43549196     0.16775759   
     38120   0.96863246    -0.53397002     0.43456557     0.17577586   
     38130   0.9690068     -0.5302154      0.4386945      0.17644332   
     38140   0.97545961    -0.53712301     0.43823906     0.16402625   
     38150   0.97145436    -0.53490034     0.43645687     0.17229071   
     38160   0.96931947    -0.53703608     0.43218646     0.16468847   
     38170   0.96935353    -0.54016027     0.42909633     0.1622941    
     38180   0.96163009    -0.53657365     0.42496028     0.17600667   
     38190   0.95614861    -0.53690454     0.41914845     0.16666338   
     38200   0.95256353    -0.53518013     0.41728814     0.16553921   
     38210   0.94668902    -0.53497501     0.41161935     0.16321173   
     38220   0.94739038    -0.53776954     0.40952611     0.1576729    
     38230   0.9462623     -0.53845452     0.40771315     0.16184311   
     38240   0.94899771    -0.53431566     0.41458715     0.17514414   
     38250   0.95232486    -0.54066564     0.41156398     0.16437845   
     38260   0.9484768     -0.53479817     0.41358378     0.17417401   
     38270   0.95057276    -0.54209319     0.40838452     0.15938966   
     38280   0.94971715    -0.54096272     0.40865945     0.16574604   
     38290   0.94968372    -0.54287126     0.40671749     0.15913533   
     38300   0.94996615    -0.53845192     0.41141923     0.17257144   
     38310   0.94748469    -0.53988159     0.40750836     0.17283391   
     38320   0.94580379    -0.54199403     0.40371518     0.16485005   
     38330   0.94437151    -0.53980406     0.40447302     0.16549293   
     38340   0.94962519    -0.54701592     0.40251431     0.14745117   
     38350   0.94850869    -0.53795404     0.4104598      0.16928436   
     38360   0.95506533    -0.54202611     0.41294371     0.15832822   
     38370   0.95231275    -0.5372724      0.41494512     0.17135529   
     38380   0.95510137    -0.54230477     0.41270108     0.16358107   
     38390   0.95749566    -0.53755582     0.41984408     0.17100351   
     38400   0.96016369    -0.53996418     0.42010348     0.17025103   
     38410   0.95780362    -0.53670549     0.42100235     0.18085896   
     38420   0.95532221    -0.53664499     0.41858168     0.17660122   
     38430   0.95843733    -0.54013069     0.41821079     0.16416509   
     38440   0.95987566    -0.53807436     0.42170532     0.16616331   
     38450   0.96592139    -0.54149397     0.42433083     0.15467002   
     38460   0.96322718    -0.54375255     0.41937831     0.14847977   
     38470   0.96040524    -0.54231461     0.4179946      0.16321749   
     38480   0.95940094    -0.54039924     0.41890576     0.17178921   
     38490   0.9553107     -0.54181046     0.41340471     0.16872263   
     38500   0.96412774    -0.54105494     0.42297638     0.17061045   
     38510   0.95873468    -0.53209053     0.42654827     0.18476847   
     38520   0.95954362    -0.53938839     0.42005928     0.16811119   
     38530   0.95543887    -0.53777778     0.41756555     0.16462526   
     38540   0.95184204    -0.5362669      0.41547995     0.17077669   
     38550   0.95629752    -0.54473586     0.41146603     0.16498574   
     38560   0.95260415    -0.54275974     0.40974915     0.16909933   
     38570   0.95030082    -0.5430279      0.40717789     0.17072607   
     38580   0.95260803    -0.54326164     0.40925113     0.16784121   
     38590   0.9520782     -0.54811133     0.40387166     0.16980193   
     38600   0.95075417    -0.54961446     0.40104463     0.16606647   
     38610   0.94284072    -0.54076652     0.40197991     0.17069181   
     38620   0.9407203     -0.54218254     0.39844369     0.16220708   
     38630   0.94116005    -0.5443491      0.39671683     0.16045759   
     38640   0.93793923    -0.54320696     0.39463847     0.16431179   
     38650   0.93730996    -0.54406259     0.39315364     0.16180117   
     38660   0.94195673    -0.54647864     0.39538389     0.15576456   
     38670   0.93848889    -0.54095902     0.39743602     0.16556079   
     38680   0.935838      -0.54193447     0.39380995     0.16947614   
     38690   0.93991812    -0.54597458     0.39384955     0.16526395   
     38700   0.94105926    -0.54747986     0.3934853      0.16150117   
     38710   0.94166789    -0.54498605     0.39658767     0.164084     
     38720   0.93912789    -0.54267133     0.39636265     0.16806977   
     38730   0.94396888    -0.54561395     0.39826053     0.15730381   
     38740   0.94907169    -0.55118663     0.39779015     0.14659918   
     38750   0.94762328    -0.55099096     0.39653755     0.15786896   
     38760   0.94429434    -0.54874089     0.39545902     0.16947182   
     38770   0.94594007    -0.54639254     0.39945294     0.1787568    
     38780   0.94966939    -0.54893055     0.40064388     0.16969318   
     38790   0.95333638    -0.54946588     0.40377517     0.1678173    
     38800   0.95316245    -0.55159669     0.40147044     0.16285845   
     38810   0.95243571    -0.54594893     0.40639154     0.17273072   
     38820   0.94761146    -0.54308984     0.40442686     0.16925189   
     38830   0.95074019    -0.54710519     0.40353992     0.15286401   
     38840   0.95094014    -0.54611115     0.4047339      0.16015882   
     38850   0.94862016    -0.54335521     0.40517009     0.16666563   
     38860   0.95205847    -0.54521571     0.40674755     0.17027384   
     38870   0.95179977    -0.55078239     0.4009222      0.15751176   
     38880   0.94782869    -0.54959995     0.39813396     0.15784001   
     38890   0.94443834    -0.54520085     0.39914304     0.1631663    
     38900   0.93748336    -0.54681432     0.3905753      0.15484442   
     38910   0.93594308    -0.54492965     0.39091983     0.16531446   
     38920   0.93357574    -0.54291287     0.39056951     0.17325437   
     38930   0.93508052    -0.54556547     0.38942154     0.16667562   
     38940   0.93623353    -0.54022761     0.39591229     0.16883527   
     38950   0.93462384    -0.54343592     0.39109445     0.15505393   
     38960   0.93947536    -0.54778496     0.39159646     0.15165815   
     38970   0.93478832    -0.54134659     0.39334825     0.16502497   
     38980   0.93174155    -0.54392734     0.38772104     0.16561432   
     38990   0.92926307    -0.54647454     0.3826956      0.15626165   
     39000   0.92858904    -0.54418821     0.38430797     0.1635       
     39010   0.92171601    -0.5473955      0.37422834     0.15447718   
     39020   0.92241432    -0.54897196     0.37335012     0.15928928   
     39030   0.92042129    -0.54422461     0.37610464     0.16986163   
     39040   0.92267703    -0.5499923      0.37259246     0.15872787   
     39050   0.92493848    -0.54871155     0.37613444     0.16622835   
     39060   0.92483537    -0.54989998     0.37484291     0.16549229   
     39070   0.92067055    -0.54675093     0.37382756     0.16734638   
     39080   0.92102783    -0.5500716      0.37086412     0.1532891    
     39090   0.91641128    -0.54953567     0.36678397     0.15699857   
     39100   0.91420824    -0.54756548     0.36655134     0.16524112   
     39110   0.92410407    -0.55761901     0.36639265     0.14275377   
     39120   0.91962462    -0.55058394     0.36894871     0.1564359    
     39130   0.91695707    -0.54912172     0.36774365     0.1624842    
     39140   0.92048155    -0.54674516     0.37364435     0.16263822   
     39150   0.92609501    -0.5502669      0.3757355      0.16113635   
     39160   0.92390389    -0.55420015     0.36961135     0.15824153   
     39170   0.91765578    -0.5497375      0.36782651     0.15947991   
     39180   0.91967664    -0.54697299     0.37261168     0.16159484   
     39190   0.91952329    -0.543374       0.37605734     0.17085946   
     39200   0.92545185    -0.54679786     0.37856144     0.16258619   
     39210   0.92929989    -0.54819676     0.3810102      0.15918489   
     39220   0.93014979    -0.54903632     0.38102045     0.15668233   
     39230   0.92967401    -0.54315963     0.38642141     0.16741277   
     39240   0.92767541    -0.54669299     0.38088966     0.15064064   
     39250   0.92121076    -0.54367361     0.37744502     0.1615809    
     39260   0.92106695    -0.54284341     0.37813143     0.16541042   
     39270   0.92702198    -0.54783881     0.37909047     0.16178037   
     39280   0.92865184    -0.55107627     0.37748271     0.16037985   
     39290   0.92402702    -0.55281381     0.37112081     0.1551337    
     39300   0.92196917    -0.54678857     0.3750884      0.16779706   
     39310   0.91903711    -0.54580313     0.37314208     0.16603217   
     39320   0.91880337    -0.54567414     0.37303735     0.1627671    
     39330   0.9193989     -0.54641286     0.3728941      0.16139282   
     39340   0.91995573    -0.54692769     0.37293605     0.15596869   
     39350   0.91029074    -0.54682034     0.36337937     0.15132287   
     39360   0.91228223    -0.54847428     0.36371672     0.14880676   
     39370   0.91695602    -0.55718223     0.35968209     0.13584302   
     39380   0.91350393    -0.55065278     0.3627598      0.15596692   
     39390   0.91310271    -0.55146678     0.36154461     0.16843797   
     39400   0.91151295    -0.55672076     0.35470104     0.16641432   
     39410   0.90738085    -0.55650684     0.35078328     0.16020848   
     39420   0.90992736    -0.56311903     0.34671734     0.14536404   
     39430   0.90796843    -0.55789397     0.34998367     0.1614517    
     39440   0.90610394    -0.55492438     0.35108895     0.16659067   
     39450   0.90427007    -0.55339102     0.35078863     0.16002459   
     39460   0.90527604    -0.56062958     0.34455593     0.13883432   
     39470   0.90640143    -0.56270173     0.34360906     0.14439841   
     39480   0.90381483    -0.55588232     0.34784212     0.17140998   
     39490   0.91083702    -0.5617712      0.34897473     0.16199734   
     39500   0.91081903    -0.55843928     0.35228866     0.15680815   
     39510   0.91300055    -0.56249896     0.35041029     0.15604517   
     39520   0.9126331     -0.56138105     0.35116079     0.15608198   
     39530   0.91289154    -0.55879057     0.35400969     0.16396059   
     39540   0.91283154    -0.55787128     0.35486898     0.16931151   
     39550   0.91692403    -0.55879763     0.3580347      0.16058763   
     39560   0.91735241    -0.55673342     0.36052725     0.15900859   
     39570   0.91094217    -0.55093698     0.3599141      0.16065759   
     39580   0.91050383    -0.55452543     0.35588734     0.15632301   
     39590   0.91381975    -0.55782814     0.35590023     0.15211708   
     39600   0.91360359    -0.55636509     0.35714713     0.16353702   
     39610   0.91277543    -0.55542327     0.35726088     0.1599155    
     39620   0.90768763    -0.55427694     0.35331992     0.15367165   
     39630   0.91462245    -0.56152566     0.35300534     0.14797365   
     39640   0.91306066    -0.55439252     0.35857684     0.16491466   
     39650   0.91617095    -0.54845524     0.36762409     0.17472809   
     39660   0.91689962    -0.55264922     0.36415871     0.16031971   
     39670   0.91780977    -0.55088675     0.36683124     0.15739296   
     39680   0.91868637    -0.55381825     0.36477626     0.15258702   
     39690   0.91442226    -0.55272782     0.361603       0.15127515   
     39700   0.91591696    -0.55565984     0.36016553     0.15582639   
     39710   0.90292453    -0.54808319     0.35475105     0.16965302   
     39720   0.90383696    -0.55654805     0.34719852     0.14822045   
     39730   0.90431681    -0.55106546     0.35316092     0.15663139   
     39740   0.90944456    -0.55193611     0.35741751     0.15660952   
     39750   0.90814867    -0.55335185     0.35470601     0.15076651   
     39760   0.89788173    -0.55001444     0.34777751     0.15721311   
     39770   0.89805125    -0.55076884     0.34719261     0.15639179   
     39780   0.89598057    -0.55158805     0.34430292     0.14481924   
     39790   0.89279063    -0.54936717     0.34333418     0.15008539   
     39800   0.88983734    -0.54923305     0.34051531     0.15151127   
     39810   0.89203471    -0.5554359      0.33650961     0.14019696   
     39820   0.88771597    -0.55140191     0.33622528     0.14461918   
     39830   0.89005162    -0.55507645     0.33488616     0.14792426   
     39840   0.89118503    -0.55467703     0.33641889     0.15674681   
     39850   0.8923517     -0.55295827     0.3393042      0.16058663   
     39860   0.89458024    -0.55597441     0.33851637     0.16249433   
     39870   0.89467711    -0.55576902     0.33881862     0.15822897   
     39880   0.89101518    -0.55783432     0.33309176     0.14594917   
     39890   0.8888578     -0.55955006     0.32921885     0.14155875   
     39900   0.89027912    -0.55233219     0.3378579      0.15573255   
     39910   0.89410802    -0.55541231     0.3386063      0.14324824   
     39920   0.89716587    -0.55330148     0.34377467     0.15177649   
     39930   0.89275325    -0.54835692     0.34430705     0.15794087   
     39940   0.89293373    -0.5509704      0.34187404     0.15308758   
     39950   0.8954599     -0.55145454     0.34391582     0.14961551   
     39960   0.88738434    -0.54666488     0.34063072     0.15272856   
     39970   0.8870512     -0.55330333     0.33365916     0.13517552   
     39980   0.88778889    -0.55053859     0.33716152     0.14378015   
     39990   0.88590181    -0.54448521     0.34132801     0.15985091   
     40000   0.89185389    -0.55077382     0.34099089     0.15104111   
     40010   0.89558469    -0.54979395     0.34570119     0.15101427   
     40020   0.89457511    -0.54498831     0.34949734     0.15291821   
     40030   0.89708922    -0.54955003     0.34744948     0.15183997   
     40040   0.89651326    -0.55181266     0.34461095     0.14517772   
     40050   0.89505254    -0.54510814     0.34985489     0.16292503   
     40060   0.90294641    -0.54945529     0.35340083     0.14723946   
     40070   0.90280239    -0.55296645     0.34974566     0.14049622   
     40080   0.895991      -0.54663185     0.34926955     0.1509066    
     40090   0.90045182    -0.54663031     0.35373146     0.16261338   
     40100   0.90097568    -0.55275143     0.34813415     0.15437996   
     40110   0.89679052    -0.55210671     0.34459413     0.15595161   
     40120   0.89526465    -0.55114657     0.34402855     0.16125254   
     40130   0.89654551    -0.55474561     0.34171024     0.15161637   
     40140   0.89195976    -0.54831727     0.34355329     0.16329961   
     40150   0.89746593    -0.55212932     0.34524686     0.16037026   
     40160   0.89789472    -0.55845389     0.33935104     0.14681321   
     40170   0.89222956    -0.55754472     0.33459562     0.1400051    
     40180   0.88963777    -0.55479735     0.33475146     0.14935182   
     40190   0.89031818    -0.55850855     0.33172059     0.14301752   
     40200   0.87936232    -0.55674155     0.32253283     0.1549144    
     40210   0.87769951    -0.56109236     0.31651938     0.14820113   
     40220   0.87635663    -0.55381082     0.32245817     0.15368331   
     40230   0.87900192    -0.55637465     0.32253937     0.1469748    
     40240   0.877246      -0.55373849     0.32341978     0.1518806    
     40250   0.88233929    -0.55961001     0.32264105     0.13727416   
     40260   0.88101126    -0.55518842     0.32573474     0.15212956   
     40270   0.88105107    -0.55566461     0.32529836     0.15782276   
     40280   0.88022474    -0.55807995     0.32205678     0.15587519   
     40290   0.87632433    -0.55476551     0.32147118     0.15098977   
     40300   0.87699707    -0.55556767     0.3213417      0.1368272    
     40310   0.87272041    -0.54710717     0.32552597     0.15166658   
     40320   0.88034689    -0.55470184     0.32555702     0.13411406   
     40330   0.88124521    -0.55790865     0.32324843     0.13057076   
     40340   0.87958194    -0.55599356     0.32350042     0.14574164   
     40350   0.87839008    -0.55212313     0.32617911     0.15988897   
     40360   0.88323857    -0.55655331     0.32659694     0.154706     
     40370   0.88639748    -0.5609679      0.32534094     0.13992558   
     40380   0.88695325    -0.55310721     0.33375735     0.1618005    
     40390   0.88698997    -0.55288861     0.33401266     0.16340788   
     40400   0.88767129    -0.55392285     0.33365968     0.15282072   
     40410   0.88892594    -0.55586291     0.33297413     0.14569076   
     40420   0.88344476    -0.55461105     0.32874537     0.14657093   
     40430   0.88252782    -0.55366521     0.32877435     0.14753842   
     40440   0.88331617    -0.55242427     0.33080356     0.14661065   
     40450   0.88189337    -0.55412554     0.32767964     0.14058762   
     40460   0.88519696    -0.55067048     0.33443796     0.15566062   
     40470   0.88773571    -0.55698039     0.33066654     0.14958459   
     40480   0.88566639    -0.55345015     0.33212768     0.15935746   
     40490   0.88933724    -0.55420831     0.33504        0.15112855   
     40500   0.88445162    -0.551102       0.33326118     0.16065134   
     40510   0.88375878    -0.55279979     0.33087061     0.15949637   
     40520   0.88451182    -0.55890513     0.32551825     0.14478635   
     40530   0.88205265    -0.55658541     0.32537904     0.14715116   
     40540   0.88268883    -0.55541552     0.32718504     0.15326308   
     40550   0.87977488    -0.55806103     0.32162587     0.14292731   
     40560   0.87146661    -0.56017244     0.31120702     0.14040704   
     40570   0.87259878    -0.55814963     0.31436189     0.14559398   
     40580   0.87216951    -0.55577511     0.31630718     0.14829556   
     40590   0.87429892    -0.56019777     0.31401373     0.1387383    
     40600   0.87020107    -0.55912397     0.31099008     0.14030909   
     40610   0.87358156    -0.56039233     0.31310187     0.13915982   
     40620   0.87839914    -0.56560185     0.31270945     0.13546039   
     40630   0.87673653    -0.56292815     0.31372071     0.14375109   
     40640   0.8705784     -0.56083319     0.30965815     0.15743342   
     40650   0.86176565    -0.5637996      0.29787988     0.15726139   
     40660   0.86114885    -0.57015889     0.29090385     0.14575137   
     40670   0.86025264    -0.56698044     0.29318618     0.14471886   
     40680   0.86309732    -0.56830931     0.2947017      0.13825699   
     40690   0.86018478    -0.56239222     0.29770655     0.14987269   
     40700   0.85709543    -0.559248       0.29776172     0.15606482   
     40710   0.86253393    -0.56692874     0.29551894     0.14634484   
     40720   0.86039235    -0.56245393     0.29785238     0.14995556   
     40730   0.86177508    -0.56599347     0.29569543     0.14512467   
     40740   0.86266461    -0.56836807     0.29421028     0.13695179   
     40750   0.86069162    -0.55963691     0.30096865     0.15297483   
     40760   0.85398319    -0.55939712     0.29450067     0.1541994    
     40770   0.85694125    -0.56512895     0.29172661     0.14782578   
     40780   0.86037356    -0.56552884     0.29475868     0.13626402   
     40790   0.86264505    -0.56611065     0.29644813     0.14215888   
     40800   0.86378368    -0.56524404     0.29845326     0.14809859   
     40810   0.86865484    -0.56724771     0.30132026     0.14413877   
     40820   0.87073464    -0.5692393      0.30140826     0.13951984   
     40830   0.87398871    -0.56882771     0.30507359     0.14160434   
     40840   0.87114864    -0.56502011     0.30604141     0.15150806   
     40850   0.8662982     -0.56335453     0.30285703     0.16035067   
     40860   0.86902867    -0.56839408     0.30054769     0.15015416   
     40870   0.86670581    -0.570753       0.29586614     0.14418603   
     40880   0.86318126    -0.56780261     0.29529233     0.14246633   
     40890   0.85832132    -0.57048323     0.28775226     0.13234486   
     40900   0.85441851    -0.56613265     0.28820042     0.14298444   
     40910   0.85508724    -0.564842       0.29015972     0.14352167   
     40920   0.85221067    -0.56332337     0.28880208     0.14873485   
     40930   0.84990728    -0.5632299      0.28659239     0.15056325   
     40940   0.85208359    -0.56361566     0.28838272     0.14749309   
     40950   0.85607946    -0.56658944     0.28940441     0.13983699   
     40960   0.84796898    -0.56241238     0.28547181     0.14641008   
     40970   0.84687167    -0.56352998     0.28325701     0.14744394   
     40980   0.84655233    -0.56287059     0.28359709     0.14656253   
     40990   0.84659608    -0.567677       0.27883441     0.13178724   
     41000   0.84414366    -0.56442321     0.27963604     0.1398666    
     41010   0.8440457     -0.56604655     0.27791475     0.1362833    
     41020   0.84242942    -0.55969518     0.28265        0.14073574   
     41030   0.84385035    -0.56158412     0.28218185     0.13697281   
     41040   0.84291221    -0.56491513     0.27791279     0.12975534   
     41050   0.83900183    -0.56265851     0.27625942     0.14335928   
     41060   0.8412425     -0.56338772     0.27777066     0.14638048   
     41070   0.84088945    -0.5653141      0.27549125     0.14695437   
     41080   0.83653431    -0.56625182     0.27019884     0.14140994   
     41090   0.84093301    -0.56419421     0.2766547      0.14478612   
     41100   0.84722348    -0.56574474     0.28139402     0.13941483   
     41110   0.85002673    -0.56357396     0.28636777     0.14356486   
     41120   0.85053543    -0.56349308     0.2869573      0.13865276   
     41130   0.85023652    -0.56764334     0.28250816     0.13586182   
     41140   0.85199568    -0.57319826     0.27871221     0.12658081   
     41150   0.85324376    -0.56633571     0.28682273     0.14832746   
     41160   0.86099027    -0.56573044     0.29517373     0.15159006   
     41170   0.86175475    -0.56579271     0.29587586     0.14256827   
     41180   0.86427683    -0.5714445      0.2927459      0.13374445   
     41190   0.86089819    -0.56362479     0.29718731     0.15091302   
     41200   0.86329083    -0.57035073     0.29285377     0.14212236   
     41210   0.8618403     -0.57239031     0.2893638      0.13543655   
     41220   0.86297847    -0.56794645     0.29494572     0.15123902   
     41230   0.8629083     -0.56847663     0.29434538     0.14725655   
     41240   0.86498579    -0.56854933     0.29634996     0.14556609   
     41250   0.86985726    -0.56591016     0.30386012     0.14572952   
     41260   0.87310844    -0.56797637     0.30504476     0.13434315   
     41270   0.87415102    -0.5710776      0.302986       0.14084475   
     41280   0.86955045    -0.5688487      0.3006148      0.14423895   
     41290   0.87416142    -0.57628046     0.29779354     0.13776133   
     41300   0.86520092    -0.57008536     0.29502905     0.15571038   
     41310   0.86479212    -0.57063346     0.29407218     0.15141384   
     41320   0.86389644    -0.57592083     0.28788922     0.13848625   
     41330   0.86278411    -0.57461053     0.2880873      0.14264695   
     41340   0.86318126    -0.58082199     0.28227295     0.13128843   
     41350   0.86216049    -0.57815305     0.28392122     0.13270306   
     41360   0.86334232    -0.57468507     0.28857092     0.14418833   
     41370   0.86007305    -0.5737112      0.28627584     0.14761986   
     41380   0.85937736    -0.5781071      0.28118432     0.13842885   
     41390   0.85469228    -0.57979722     0.27480959     0.13247701   
     41400   0.85246776    -0.57378259     0.27859992     0.1437666    
     41410   0.85531216    -0.57474389     0.28048274     0.14506528   
     41420   0.84846595    -0.57528993     0.27309118     0.14647702   
     41430   0.84281115    -0.57683909     0.26588777     0.13827834   
     41440   0.84342726    -0.57260755     0.27073537     0.1450837    
     41450   0.84141303    -0.57218367     0.26914522     0.13689254   
     41460   0.84411802    -0.57409958     0.26993402     0.14025041   
     41470   0.84288502    -0.57811501     0.26468572     0.13987707   
     41480   0.83986769    -0.57948925     0.26029445     0.13995003   
     41490   0.84294229    -0.58883993     0.25401807     0.12396799   
     41500   0.84106455    -0.57851795     0.26246249     0.14690756   
     41510   0.84186932    -0.57949411     0.26229102     0.15331293   
     41520   0.84402034    -0.58256455     0.26137139     0.14194742   
     41530   0.84699883    -0.58518322     0.26173091     0.13574998   
     41540   0.84303153    -0.58431503     0.2586322      0.13541922   
     41550   0.84078374    -0.58100702     0.25969265     0.14164414   
     41560   0.84174608    -0.58284061     0.2588213      0.13279893   
     41570   0.83874059    -0.57427422     0.26438249     0.14625119   
     41580   0.83720741    -0.5833085      0.25381519     0.13328974   
     41590   0.83201033    -0.57838721     0.25353991     0.14417962   
     41600   0.83338175    -0.58574363     0.24755478     0.12223788   
     41610   0.83351204    -0.58563773     0.24779096     0.11966454   
     41620   0.83520705    -0.58453823     0.2505853      0.13984571   
     41630   0.83520337    -0.58434463     0.25077522     0.14004674   
     41640   0.83425331    -0.58517236     0.24899752     0.14169284   
     41650   0.83540539    -0.58643642     0.24888543     0.13323793   
     41660   0.83328504    -0.58407628     0.24912542     0.13685742   
     41670   0.83295795    -0.58551877     0.24735588     0.12496645   
     41680   0.83237867    -0.58736612     0.24492931     0.12165682   
     41690   0.83218553    -0.58847307     0.24362924     0.12481859   
     41700   0.83004658    -0.58511798     0.24484559     0.14089377   
     41710   0.83082391    -0.58713692     0.24360391     0.14643716   
     41720   0.83198882    -0.59074203     0.24116359     0.13463915   
     41730   0.82956531    -0.58780542     0.24167693     0.13944211   
     41740   0.82799894    -0.58964877     0.23826737     0.12899765   
     41750   0.83591341    -0.59172176     0.24410806     0.12779814   
     41760   0.83234422    -0.58546473     0.24679626     0.14606625   
     41770   0.83194944    -0.59091126     0.24095498     0.13268409   
     41780   0.82364275    -0.58840301     0.23515737     0.13265215   
     41790   0.81760494    -0.59002602     0.22749716     0.12802252   
     41800   0.81567973    -0.58721413     0.22838404     0.13862567   
     41810   0.81410841    -0.5907766      0.2232504      0.12583443   
     41820   0.80827357    -0.59007674     0.21811601     0.12620122   
     41830   0.80466766    -0.59090247     0.21368473     0.13271343   
     41840   0.80764009    -0.59377781     0.21378152     0.13515358   
     41850   0.81095425    -0.59372451     0.21714865     0.13326046   
     41860   0.81099746    -0.59328691     0.21762945     0.13124054   
     41870   0.81160126    -0.5950514      0.2164687      0.12155221   
     41880   0.80940375    -0.5920909      0.21723191     0.12805814   
     41890   0.81363248    -0.59446313     0.219088       0.1308184    
     41900   0.81990685    -0.59805995     0.2217649      0.125126     
     41910   0.81695625    -0.59464861     0.22222594     0.13802714   
     41920   0.81334863    -0.59713835     0.21612894     0.13699254   
     41930   0.8105349     -0.59206431     0.21838954     0.1465898    
     41940   0.81740927    -0.59922245     0.21810508     0.1300894    
     41950   0.81685153    -0.5960347      0.22073515     0.13552343   
     41960   0.82041766    -0.5964703      0.22386532     0.13323117   
     41970   0.82467901    -0.60080947     0.22378708     0.12046314   
     41980   0.81846486    -0.59369067     0.22469235     0.13601734   
     41990   0.81601345    -0.59282734     0.2231045      0.14201422   
     42000   0.82174532    -0.59645239     0.22521075     0.13620304   
     42010   0.82691658    -0.59729979     0.2295341      0.13234248   
     42020   0.83025601    -0.60082471     0.22934827     0.12564949   
     42030   0.82974889    -0.59797488     0.23169104     0.13344876   
     42040   0.82859962    -0.59419865     0.23431811     0.14170567   
     42050   0.82888363    -0.58955261     0.23924813     0.15103075   
     42060   0.83031867    -0.59315938     0.23707626     0.13900279   
     42070   0.82912626    -0.5928992      0.23614415     0.13498126   
     42080   0.82943536    -0.59585904     0.23349337     0.1364468    
     42090   0.83152264    -0.59304493     0.23839456     0.14531082   
     42100   0.83180687    -0.59398617     0.23773752     0.14003457   
     42110   0.82903663    -0.59576152     0.2331922      0.14176851   
     42120   0.82415156    -0.59389432     0.23017482     0.14909565   
     42130   0.82147191    -0.59671898     0.22467078     0.14249816   
     42140   0.82047617    -0.59443327     0.22596085     0.13699477   
     42150   0.82219313    -0.59388435     0.22822656     0.13273261   
     42160   0.81806134    -0.59360898     0.22437055     0.12868467   
     42170   0.82242605    -0.5938843      0.2284595      0.12537746   
     42180   0.81922945    -0.59735767     0.22178986     0.11595785   
     42190   0.81639548    -0.59911286     0.21720098     0.12018718   
     42200   0.81281147    -0.5970264      0.2157038      0.12698982   
     42210   0.8183974     -0.60058994     0.21772562     0.1290803    
     42220   0.82170449    -0.60216736     0.21945497     0.12926598   
     42230   0.81702234    -0.59683442     0.22010622     0.13927898   
     42240   0.81388232    -0.59810094     0.21569999     0.1336116    
     42250   0.81597461    -0.59974103     0.21615198     0.1270823    
     42260   0.81101053    -0.59871468     0.21221475     0.13056305   
     42270   0.80886711    -0.5986222      0.21016403     0.13220806   
     42280   0.80754193    -0.59735315     0.21010803     0.13227756   
     42290   0.80923535    -0.59806927     0.21108516     0.12964256   
     42300   0.81215512    -0.60102824     0.21104567     0.12300619   
     42310   0.80848358    -0.59866275     0.20973998     0.12945494   
     42320   0.80897583    -0.60272472     0.20617021     0.12123502   
     42330   0.80891625    -0.60089165     0.20794371     0.12924119   
     42340   0.80597563    -0.59740676     0.20848827     0.13100143   
     42350   0.80470362    -0.59662247     0.20800068     0.12182407   
     42360   0.8086708     -0.59889229     0.20969764     0.12546029   
     42370   0.80604898    -0.59931591     0.20665246     0.13152583   
     42380   0.80580219    -0.60075309     0.20496852     0.12990975   
     42390   0.80449327    -0.60143156     0.20298126     0.12283507   
     42400   0.80034732    -0.60046219     0.1998051      0.12675503   
     42410   0.79556426    -0.59833685     0.19714786     0.135935     
     42420   0.7963401     -0.59752793     0.19873253     0.14504892   
     42430   0.80090407    -0.60626643     0.19455755     0.11801607   
     42440   0.80157943    -0.60235481     0.19914446     0.11817921   
     42450   0.80091169    -0.59775167     0.20307993     0.13481547   
     42460   0.8008273     -0.59688704     0.20386018     0.14647895   
     42470   0.80709937    -0.59980257     0.20721609     0.13882959   
     42480   0.80596339    -0.60324339     0.20263941     0.12465993   
     42490   0.80060469    -0.60145946     0.19906517     0.12129288   
     42500   0.80406976    -0.60378629     0.20020306     0.1146295    
     42510   0.80114953    -0.60261588     0.19845353     0.12357275   
     42520   0.8026751     -0.60476604     0.1978288      0.1257174    
     42530   0.8009423     -0.60023957     0.20062263     0.13187538   
     42540   0.80105113    -0.59930632     0.2016647      0.13125603   
     42550   0.79835183    -0.600901       0.197371       0.12131439   
     42560   0.79735857    -0.59843657     0.19884227     0.12891878   
     42570   0.7987033     -0.60086637     0.19775706     0.12759839   
     42580   0.79614588    -0.60518474     0.19088153     0.12066339   
     42590   0.7898037     -0.59896365     0.19076107     0.13219375   
     42600   0.79815567    -0.60069498     0.19738088     0.12075425   
     42610   0.79990315    -0.6000968      0.19972636     0.11885589   
     42620   0.80067346    -0.60123799     0.1993554      0.1124493    
     42630   0.79640625    -0.59501191     0.20131469     0.11883216   
     42640   0.79852439    -0.5985928      0.19985174     0.11717461   
     42650   0.79800749    -0.59593268     0.20199501     0.12644475   
     42660   0.80013148    -0.59677551     0.20327596     0.12927876   
     42670   0.80139472    -0.5996134      0.20170118     0.12216219   
     42680   0.80175311    -0.59837974     0.20329319     0.12375264   
     42690   0.80330936    -0.60124159     0.20198744     0.12051855   
     42700   0.80566422    -0.6055485      0.20003515     0.12001572   
     42710   0.80169977    -0.59746174     0.20415786     0.13675197   
     42720   0.80886302    -0.60133918     0.20744295     0.12704444   
     42730   0.81187395    -0.60394595     0.20784681     0.12274778   
     42740   0.81101633    -0.60164489     0.20929034     0.12708713   
     42750   0.8054932     -0.60363079     0.20178186     0.1281995    
     42760   0.80028272    -0.59864591     0.20155678     0.14436335   
     42770   0.80498787    -0.60396959     0.20093779     0.13337538   
     42780   0.79978224    -0.60362111     0.19608116     0.13531676   
     42790   0.79779748    -0.60638005     0.19133765     0.13146701   
     42800   0.79195648    -0.60426774     0.18760954     0.13578697   
     42810   0.78954247    -0.60289765     0.18656586     0.12920568   
     42820   0.7930167     -0.60585595     0.18708145     0.12422274   
     42830   0.79065904    -0.60223639     0.18834358     0.12841396   
     42840   0.79145319    -0.60722431     0.18414973     0.11945823   
     42850   0.7901065     -0.60386955     0.18615794     0.12906474   
     42860   0.78575203    -0.60275627     0.18291718     0.13339993   
     42870   0.78710677    -0.60397785     0.1830502      0.13879309   
     42880   0.78871185    -0.60569858     0.1829344      0.12553737   
     42890   0.78823065    -0.60349431     0.18465751     0.12309647   
     42900   0.78765793    -0.60324968     0.18432949     0.12200102   
     42910   0.78765686    -0.60810549     0.17947261     0.11538502   
     42920   0.78657054    -0.60851125     0.17798064     0.11826279   
     42930   0.78291811    -0.6030744      0.17976541     0.13211307   
     42940   0.78028038    -0.60349732     0.17670503     0.12189589   
     42950   0.78118381    -0.6050465      0.17605918     0.11355369   
     42960   0.78202446    -0.60198815     0.17995811     0.12174002   
     42970   0.78768454    -0.60793511     0.17967067     0.11574134   
     42980   0.78388068    -0.60711111     0.17669118     0.12068043   
     42990   0.78172998    -0.6038624      0.17778941     0.14037372   
     43000   0.78696167    -0.6077627      0.17912028     0.1267969    
     43010   0.78581724    -0.60418002     0.18155864     0.13036679   
     43020   0.78736823    -0.60932696     0.17796254     0.12349142   
     43030   0.78799213    -0.61199906     0.17591426     0.11801813   
     43040   0.78810334    -0.61092542     0.17709911     0.13550993   
     43050   0.78317826    -0.6112315      0.17186844     0.13409148   
     43060   0.78315544    -0.61081157     0.17226555     0.1304308    
     43070   0.78652697    -0.60870233     0.17774599     0.12940725   
     43080   0.78674502    -0.61363327     0.17303308     0.11084797   
     43090   0.78069201    -0.61385236     0.16676158     0.11034869   
     43100   0.7792011     -0.61247966     0.16664352     0.11620491   
     43110   0.77594659    -0.60759169     0.16827731     0.11897913   
     43120   0.77896844    -0.61037695     0.16851359     0.12224131   
     43130   0.78132154    -0.61146069     0.16978272     0.12219437   
     43140   0.78138259    -0.60834571     0.17295874     0.13032392   
     43150   0.78361903    -0.61479241     0.16874826     0.11491097   
     43160   0.77816605    -0.61742669     0.16066155     0.11673313   
     43170   0.77780756    -0.6138155      0.16391427     0.1263093    
     43180   0.77076993    -0.61465019     0.15604267     0.12971183   
     43190   0.77200808    -0.61921605     0.15271483     0.12621522   
     43200   0.7695671     -0.61571705     0.15377309     0.13297021   
     43210   0.76904462    -0.62105328     0.14791444     0.12162121   
     43220   0.76835259    -0.621886       0.14638976     0.12269718   
     43230   0.76430287    -0.61741622     0.14681022     0.13134528   
     43240   0.77005383    -0.62029632     0.14968051     0.12057366   
     43250   0.76688655    -0.61951195     0.14729792     0.11847418   
     43260   0.76179038    -0.62359488     0.13811931     0.10678363   
     43270   0.75974874    -0.62025836     0.1394144      0.11226952   
     43280   0.76348195    -0.62349732     0.13990828     0.11091268   
     43290   0.76840499    -0.62066431     0.14766385     0.119911     
     43300   0.77128856    -0.62408876     0.14712266     0.10809313   
     43310   0.76995944    -0.62034493     0.14953752     0.11504549   
     43320   0.76409397    -0.61922392     0.14479363     0.11885318   
     43330   0.76200961    -0.61786106     0.14407235     0.12202093   
     43340   0.761933      -0.61859106     0.14326575     0.12219607   
     43350   0.7617793     -0.62404925     0.13765387     0.1122769    
     43360   0.75959425    -0.61942018     0.14009812     0.13014537   
     43370   0.76331229    -0.62143756     0.1417984      0.11986692   
     43380   0.7676468     -0.62129658     0.14627345     0.11934713   
     43390   0.76968676    -0.62149464     0.14811515     0.12803767   
     43400   0.7724977     -0.62505239     0.14736806     0.11819329   
     43410   0.7710397     -0.62567115     0.14529145     0.12194228   
     43420   0.77114552    -0.62516103     0.14590737     0.12366403   
     43430   0.76370026    -0.62070918     0.14291471     0.12819706   
     43440   0.76897127    -0.62508769     0.14380668     0.12391592   
     43450   0.77248854    -0.62705483     0.14535646     0.11606708   
     43460   0.77126228    -0.62415643     0.14702873     0.13042851   
     43470   0.77620149    -0.62489502     0.15122885     0.12585364   
     43480   0.77832486    -0.62628354     0.15196349     0.12031556   
     43490   0.77465005    -0.62698756     0.14758502     0.12241442   
     43500   0.77214515    -0.63287033     0.1391976      0.11100268   
     43510   0.7659111     -0.62930386     0.13653065     0.12429544   
     43520   0.76244166    -0.62890704     0.13345838     0.12741992   
     43530   0.76550675    -0.6285761      0.13685409     0.12648167   
     43540   0.76346638    -0.62567758     0.13771246     0.13018875   
     43550   0.76360743    -0.63114104     0.13239004     0.11814116   
     43560   0.75809524    -0.62682257     0.13119685     0.11720248   
     43570   0.75704038    -0.62608717     0.1308775      0.11333039   
     43580   0.75608613    -0.62723649     0.12877403     0.11425878   
     43590   0.75242004    -0.62409904     0.12824575     0.12463433   
     43600   0.75499354    -0.63154113     0.12337691     0.11059543   
     43610   0.75136652    -0.62872964     0.12256175     0.11630747   
     43620   0.75081708    -0.62783692     0.12290508     0.11672869   
     43630   0.75066113    -0.62493795     0.12564811     0.11829431   
     43640   0.75329737    -0.63043776     0.12278429     0.11105092   
     43650   0.75158126    -0.62802178     0.12348432     0.1176847    
     43660   0.75176633    -0.62748912     0.12420204     0.11909006   
     43670   0.75313937    -0.62587634     0.12718772     0.12518938   
     43680   0.7568814     -0.6302379      0.12656781     0.11718289   
     43690   0.75537002    -0.63132684     0.12396765     0.10686292   
     43700   0.75313816    -0.62727339     0.12578945     0.1143347    
     43710   0.75502949    -0.63037372     0.12458027     0.10555461   
     43720   0.75286518    -0.62888724     0.12390265     0.11305946   
     43730   0.75340668    -0.62892721     0.12440413     0.11741705   
     43740   0.75862353    -0.63457633     0.12397134     0.10984203   
     43750   0.76130651    -0.63176216     0.12946822     0.12361474   
     43760   0.75435231    -0.63299869     0.12127818     0.11806324   
     43770   0.75375815    -0.62966817     0.1240146      0.12626839   
     43780   0.75952162    -0.63521838     0.12422728     0.11579683   
     43790   0.75862881    -0.63165605     0.1268969      0.12619801   
     43800   0.76121608    -0.63552511     0.12561485     0.11463214   
     43810   0.75904657    -0.6348599      0.12411077     0.1127262    
     43820   0.75920393    -0.63346303     0.12566498     0.11559191   
     43830   0.75997732    -0.6311458      0.12875553     0.11790764   
     43840   0.76099148    -0.63284062     0.12807476     0.11360624   
     43850   0.7559715     -0.6366478      0.1192481      0.10644648   
     43860   0.74544531    -0.62967251     0.11569826     0.12841437   
     43870   0.74368132    -0.63250501     0.11110194     0.11972413   
     43880   0.74465091    -0.63874677     0.10582968     0.10051221   
     43890   0.74838576    -0.63704273     0.11126819     0.097797358  
     43900   0.74450838    -0.63290173     0.1115322      0.10852398   
     43910   0.74451475    -0.63290058     0.11153972     0.12103102   
     43920   0.74293863    -0.63687442     0.10598991     0.11726148   
     43930   0.73881058    -0.63937184     0.099364857    0.11175915   
     43940   0.73802359    -0.63678231     0.10116748     0.12170844   
     43950   0.73802253    -0.64096169     0.096987038    0.11027526   
     43960   0.73537161    -0.6355373      0.099760775    0.11835573   
     43970   0.73953654    -0.63794866     0.10151392     0.10618901   
     43980   0.74310626    -0.6380613      0.10497064     0.10316683   
     43990   0.74112269    -0.63589789     0.10515069     0.11577109   
     44000   0.7437762     -0.63568588     0.10801595     0.11875912   
     44010   0.74083602    -0.63481339     0.10594855     0.11032815   
     44020   0.74415573    -0.63397238     0.11010893     0.10834001   
     44030   0.74512356    -0.63189516     0.11315389     0.114463     
     44040   0.7445962     -0.63174337     0.11277836     0.11477723   
     44050   0.74345583    -0.63362391     0.10975757     0.11181539   
     44060   0.73989474    -0.63024636     0.10957439     0.11534295   
     44070   0.74099202    -0.63341209     0.10750583     0.093278094  
     44080   0.73536999    -0.62467089     0.11062557     0.11231942   
     44090   0.7384495     -0.62338031     0.11499534     0.11499373   
     44100   0.74148238    -0.62817331     0.11323492     0.10929734   
     44110   0.74143233    -0.62947234     0.11188584     0.10832726   
     44120   0.73869726    -0.62729268     0.11133072     0.11594864   
     44130   0.74429829    -0.62890481     0.11531905     0.11482857   
     44140   0.7453987     -0.6327997      0.11252446     0.11575992   
     44150   0.74699797    -0.63143528     0.11548799     0.12004548   
     44160   0.74980495    -0.63019212     0.11953785     0.11761162   
     44170   0.75021593    -0.62913659     0.12100431     0.11706858   
     44180   0.74819048    -0.62827515     0.11984051     0.11696127   
     44190   0.7488238     -0.63158626     0.11716265     0.11374564   
     44200   0.74773722    -0.63511986     0.11254259     0.1055664    
     44210   0.74517798    -0.63175624     0.11334722     0.11247859   
     44220   0.74911719    -0.63291033     0.11613195     0.1046172    
     44230   0.74839946    -0.6325678      0.11575682     0.1098639    
     44240   0.74775804    -0.63197413     0.11570913     0.11429512   
     44250   0.74576494    -0.63252032     0.11317004     0.1196266    
     44260   0.74307087    -0.63232613     0.11067043     0.11151918   
     44270   0.74326991    -0.63348153     0.10971405     0.1070322    
     44280   0.74350835    -0.63239002     0.11104398     0.11031291   
     44290   0.73953359    -0.63403236     0.10542727     0.1053363    
     44300   0.73731414    -0.63546136     0.10177905     0.10752536   
     44310   0.73866557    -0.63678931     0.10180239     0.11383804   
     44320   0.74058693    -0.63821845     0.10229443     0.11293197   
     44330   0.73816072    -0.63954045     0.098546451    0.11218515   
     44340   0.73472065    -0.63891226     0.095734922    0.10928563   
     44350   0.73451088    -0.63932072     0.095116715    0.11237503   
     44360   0.73415361    -0.63828257     0.09579762     0.11630902   
     44370   0.73229212    -0.63793721     0.094281681    0.12307348   
     44380   0.73091854    -0.63994271     0.090902737    0.1204957    
     44390   0.72948761    -0.63663476     0.092779908    0.12426977   
     44400   0.72963713    -0.63899162     0.090572549    0.11357786   
     44410   0.72924582    -0.64138022     0.087792675    0.10391354   
     44420   0.73151047    -0.64227371     0.089163611    0.093786767  
     44430   0.73208568    -0.64247429     0.089538179    0.094400783  
     44440   0.72902998    -0.64112922     0.087827859    0.10151622   
     44450   0.73058555    -0.63940069     0.091111801    0.10981412   
     44460   0.72784993    -0.64203002     0.085747129    0.10955033   
     44470   0.73087629    -0.6453317      0.085471507    0.099898087  
     44480   0.73175259    -0.64530601     0.086373405    0.097817062  
     44490   0.72864884    -0.63987504     0.088700943    0.1065471    
     44500   0.72826776    -0.64095202     0.087242923    0.10875204   
     44510   0.72815383    -0.64318948     0.084891541    0.11221836   
     44520   0.72689907    -0.64445099     0.082375393    0.11304613   
     44530   0.72162309    -0.64493174     0.076619194    0.1142956    
     44540   0.72055121    -0.64212901     0.078350146    0.11631866   
     44550   0.72254768    -0.6424082      0.080067224    0.10204631   
     44560   0.72278682    -0.63889311     0.083821437    0.10799847   
     44570   0.72406588    -0.63766313     0.08633035     0.1103443    
     44580   0.73027339    -0.64487368     0.085326678    0.098220394  
     44590   0.73352792    -0.644445       0.089009572    0.10352092   
     44600   0.73102458    -0.64275214     0.088199338    0.114983     
     44610   0.73136185    -0.6495028      0.081785921    0.093124306  
     44620   0.7241921     -0.64357494     0.080544736    0.10558006   
     44630   0.7223386     -0.64212178     0.080144586    0.10868819   
     44640   0.72030421    -0.64221478     0.078017397    0.10702689   
     44650   0.72031929    -0.65126606     0.068981194    0.088261034  
     44660   0.71699726    -0.64859445     0.068331113    0.10483534   
     44670   0.71202241    -0.64160279     0.070348418    0.12689004   
     44680   0.71511316    -0.64190538     0.073136271    0.12102956   
     44690   0.7194465     -0.6519627      0.067411857    0.095382327  
     44700   0.716234      -0.65006849     0.066093892    0.10871584   
     44710   0.7183795     -0.65473839     0.063569268    0.10125733   
     44720   0.71219976    -0.65048485     0.061643683    0.1085192    
     44730   0.71540389    -0.65193055     0.063401796    0.10560744   
     44740   0.71341032    -0.6449991      0.068339878    0.11673973   
     44750   0.72030389    -0.65107539     0.069156474    0.10748129   
     44760   0.71509139    -0.64686771     0.068152169    0.10963094   
     44770   0.71518685    -0.65339511     0.06172022     0.095921102  
     44780   0.71343283    -0.65175516     0.061606319    0.10121791   
     44790   0.71363914    -0.649842       0.06372577     0.10249597   
     44800   0.71417884    -0.65206896     0.062038459    0.1081289    
     44810   0.71171152    -0.6504275      0.061212849    0.11488344   
     44820   0.71273175    -0.65297826     0.05968222     0.10532264   
     44830   0.71607382    -0.65374817     0.062254043    0.1007638    
     44840   0.71561142    -0.65289144     0.06264842     0.11052972   
     44850   0.71067394    -0.6509984      0.059604477    0.11035942   
     44860   0.70846097    -0.65033784     0.058052276    0.10355647   
     44870   0.71092499    -0.65276907     0.058084836    0.10076173   
     44880   0.70626778    -0.65065588     0.055541283    0.10799264   
     44890   0.70681238    -0.65649914     0.050242561    0.1017312    
     44900   0.70159998    -0.65378617     0.047743656    0.10550944   
     44910   0.69827258    -0.65505485     0.043147905    0.099966107  
     44920   0.69963013    -0.65685732     0.042702842    0.099985441  
     44930   0.69701691    -0.65313761     0.043809596    0.099377433  
     44940   0.69256694    -0.65205824     0.040439449    0.10351836   
     44950   0.69403457    -0.64874973     0.045215436    0.1018031    
     44960   0.69913907    -0.65167275     0.047396398    0.09785352   
     44970   0.69789823    -0.65557285     0.042255595    0.1033285    
     44980   0.69802565    -0.65893721     0.039018646    0.10612089   
     44990   0.69777621    -0.66006994     0.037636494    0.10406833   
     45000   0.69821752    -0.66052309     0.037624606    0.1030921    
     45010   0.70119062    -0.66141715     0.039703342    0.099286376  
     45020   0.69772976    -0.65363211     0.044027876    0.10867879   
     45030   0.70188124    -0.65655648     0.045254574    0.10506914   
     45040   0.70232186    -0.65575389     0.046497736    0.098254469  
     45050   0.70659433    -0.65544106     0.051082608    0.09537422   
     45060   0.7056966     -0.6521188      0.053507234    0.096368409  
     45070   0.70736348    -0.65571033     0.05158242     0.089025231  
     45080   0.70517834    -0.64792276     0.057185068    0.1114969    
     45090   0.70387378    -0.6515333      0.052270093    0.11103191   
     45100   0.70599968    -0.65309234     0.052836743    0.10778179   
     45110   0.70547293    -0.65214486     0.053257522    0.10879958   
     45120   0.70981528    -0.65426609     0.055478215    0.10655865   
     45130   0.71216504    -0.65025312     0.061840704    0.11201106   
     45140   0.71598932    -0.65640945     0.059508271    0.10259504   
     45150   0.71657209    -0.65367365     0.06282678     0.11497964   
     45160   0.71519583    -0.65452025     0.060604059    0.11335508   
     45170   0.71211595    -0.6581542      0.053890543    0.11165836   
     45180   0.71230598    -0.65962027     0.052614483    0.11096065   
     45190   0.71394545    -0.66150718     0.05236688     0.1017935    
     45200   0.71185747    -0.65884602     0.052940269    0.10463946   
     45210   0.71283217    -0.66414238     0.048618507    0.097788674  
     45220   0.71253403    -0.660592       0.051870774    0.10893111   
     45230   0.71494997    -0.66578011     0.049098362    0.10314549   
     45240   0.71475262    -0.66529641     0.049384742    0.1024987    
     45250   0.71032155    -0.66262035     0.047630165    0.10833703   
     45260   0.71048111    -0.66468441     0.045725644    0.10440764   
     45270   0.70659968    -0.666227       0.040302028    0.10066891   
     45280   0.70889796    -0.6677207      0.041106367    0.10724023   
     45290   0.70818713    -0.66663967     0.041476637    0.11020519   
     45300   0.70518692    -0.66713663     0.037979769    0.10542978   
     45310   0.70221952    -0.66536619     0.036783114    0.10639785   
     45320   0.70042613    -0.66605759     0.034298494    0.10493632   
     45330   0.69746044    -0.66549981     0.031890884    0.10782273   
     45340   0.70169488    -0.67071784     0.03090687     0.093545771  
     45350   0.69926858    -0.67071549     0.028483165    0.090305745  
     45360   0.69865017    -0.66814135     0.030438951    0.10546801   
     45370   0.69775853    -0.66720351     0.030485244    0.10979677   
     45380   0.70061137    -0.67147762     0.029063689    0.10434578   
     45390   0.69937811    -0.6728692      0.026438982    0.10184769   
     45400   0.69930943    -0.67014624     0.029093258    0.10839984   
     45410   0.70015361    -0.66821813     0.031865462    0.10511648   
     45420   0.69863926    -0.66878934     0.029780062    0.11061334   
     45430   0.69788726    -0.6705152      0.027302274    0.10480565   
     45440   0.6931904     -0.67005578     0.023065304    0.097364616  
     45450   0.69244031    -0.67301219     0.019358885    0.08954168   
     45460   0.69172251    -0.67115964     0.020493699    0.10109853   
     45470   0.69182991    -0.67426115     0.017499583    0.096096457  
     45480   0.69386479    -0.67456311     0.019232299    0.095342319  
     45490   0.69265808    -0.67288026     0.019708553    0.096572706  
     45500   0.68808239    -0.67160444     0.016409143    0.10874692   
     45510   0.68995608    -0.67273097     0.017156116    0.10506511   
     45520   0.69256467    -0.67760804     0.014887377    0.088989943  
     45530   0.68797485    -0.6786159      0.0092901584   0.088730067  
     45540   0.68646546    -0.67611095     0.010285858    0.099562938  
     45550   0.68119394    -0.67264981     0.0084760124   0.10070861   
     45560   0.68793374    -0.67576754     0.012097407    0.089130204  
     45570   0.68508282    -0.67260902     0.012405287    0.095071175  
     45580   0.6836096     -0.67518727     0.0083539724   0.093837497  
     45590   0.68218038    -0.67724508     0.0048670821   0.080911396  
     45600   0.67965434    -0.67171251     0.0078738643   0.10558372   
     45610   0.67775861    -0.67401468     0.0036761511   0.10013022   
     45620   0.68195835    -0.67714737     0.0047427869   0.091620295  
     45630   0.68123843    -0.67548993     0.005680375    0.092484572  
     45640   0.68709843    -0.67834673     0.0086829824   0.086264845  
     45650   0.68599613    -0.67086707     0.015060461    0.10500359   
     45660   0.69036192    -0.67610662     0.014186266    0.094891317  
     45670   0.68534584    -0.67495493     0.010322379    0.096305622  
     45680   0.68696243    -0.67785827     0.009035461    0.092830943  
     45690   0.68806005    -0.67952064     0.0084706093   0.089585814  
     45700   0.68568154    -0.68072852     0.0048844553   0.090551733  
     45710   0.68327193    -0.67758269     0.0056209134   0.10084043   
     45720   0.68677512    -0.68178169     0.0049247455   0.09390288   
     45730   0.68199128    -0.68056355     0.0013595313   0.098327108  
     45740   0.68008151    -0.68430274    -0.0042892305   0.089843602  
     45750   0.67949565    -0.68386578    -0.0044380742   0.093907423  
     45760   0.67984548    -0.68268516    -0.002907663    0.098419666  
     45770   0.67843742    -0.68004735    -0.0016777759   0.097334729  
     45780   0.67711697    -0.68017849    -0.0031292329   0.10158862   
     45790   0.67682859    -0.68424165    -0.0074807501   0.09231527   
     45800   0.67322051    -0.67980421    -0.0066510193   0.10140305   
     45810   0.66928533    -0.67966514    -0.010446733    0.093774191  
     45820   0.67065927    -0.68071948    -0.010127273    0.084798247  
     45830   0.67237638    -0.680991      -0.0086818664   0.086407333  
     45840   0.66760464    -0.6799684     -0.012430522    0.09348259   
     45850   0.66716813    -0.68008493    -0.012983508    0.093331614  
     45860   0.66966477    -0.68648621    -0.016888409    0.083606751  
     45870   0.66639101    -0.68107063    -0.014746261    0.10131775   
     45880   0.66564453    -0.68417755    -0.018599591    0.10136778   
     45890   0.66646372    -0.6860067     -0.019609619    0.09663093   
     45900   0.67111724    -0.68834937    -0.017299242    0.089836198  
     45910   0.6686346     -0.68320995    -0.014642214    0.097133296  
     45920   0.6708015     -0.68264343    -0.011909013    0.098572192  
     45930   0.67411185    -0.68482713    -0.010782686    0.09336645   
     45940   0.66873366    -0.68491671    -0.016249923    0.088416655  
     45950   0.66365999    -0.68358765    -0.01999403     0.096293717  
     45960   0.66893642    -0.68700339    -0.018133858    0.091893836  
     45970   0.67152565    -0.68754807    -0.016089568    0.093756459  
     45980   0.6682622     -0.68436424    -0.016168864    0.10047814   
     45990   0.67282863    -0.69062511    -0.017863761    0.07619086   
     46000   0.66961152    -0.68247805    -0.01293349     0.092479538  
     46010   0.67068752    -0.68174118    -0.011120724    0.094898199  
     46020   0.66803463    -0.6824597     -0.014491873    0.086130669  
     46030   0.66665501    -0.68040627    -0.013817926    0.085358055  
     46040   0.66784434    -0.67745829    -0.0096807372   0.097982605  
     46050   0.6693184     -0.67731259    -0.008061123    0.098189369  
     46060   0.67059101    -0.67797006    -0.0074461024   0.098144961  
     46070   0.67196979    -0.6819081     -0.010005512    0.0957375    
     46080   0.67387478    -0.68122841    -0.0074210188   0.096112639  
     46090   0.67614711    -0.68184311    -0.0057636172   0.089356982  
     46100   0.67723592    -0.68114703    -0.0039788301   0.083784932  
     46110   0.66930208    -0.67692009    -0.0076849383   0.090577507  
     46120   0.66890889    -0.67910092    -0.010258915    0.082585859  
     46130   0.67611702    -0.67941725    -0.0033678459   0.088510874  
     46140   0.67705765    -0.67765372    -0.00066377927  0.094224806  
     46150   0.67903649    -0.6805333     -0.0015647184   0.091637084  
     46160   0.68017924    -0.68278782    -0.0026765971   0.086563516  
     46170   0.68157597    -0.68380006    -0.0022922463   0.092485757  
     46180   0.68386777    -0.68341723     0.00038215168  0.10079322   
     46190   0.68534719    -0.68513317     0.00014548418  0.10098819   
     46200   0.6842829     -0.68317328     0.0010412003   0.10649008   
     46210   0.67992284    -0.68451514    -0.0046602906   0.092097313  
     46220   0.68055736    -0.68893594    -0.0084466343   0.082772737  
     46230   0.67662131    -0.68430884    -0.0077551911   0.1004563    
     46240   0.68033442    -0.68793148    -0.007665091    0.097184724  
     46250   0.67454775    -0.68753009    -0.013049797    0.096199325  
     46260   0.67123233    -0.68748978    -0.016324569    0.093545951  
     46270   0.67078886    -0.68881046    -0.018088676    0.090250883  
     46280   0.66689056    -0.68849644    -0.021672571    0.093767389  
     46290   0.67050823    -0.68806229    -0.017621113    0.095269655  
     46300   0.67161717    -0.69087987    -0.019329858    0.080527139  
     46310   0.66367083    -0.68822684    -0.024622384    0.088148269  
     46320   0.66390714    -0.68972946    -0.025888706    0.086347529  
     46330   0.66384359    -0.68761153    -0.023834321    0.089480432  
     46340   0.65959277    -0.6869075     -0.02738069     0.091226895  
     46350   0.6566299     -0.68603938    -0.029475142    0.088835158  
     46360   0.65689221    -0.6899314     -0.033104888    0.084232969  
     46370   0.65693879    -0.68939552    -0.032522425    0.089469213  
     46380   0.65263273    -0.689975      -0.037407541    0.091241093  
     46390   0.65189064    -0.69206022    -0.040234775    0.088994951  
     46400   0.65029079    -0.69164236    -0.041416601    0.097911869  
     46410   0.64763199    -0.69280105    -0.04523382     0.095564305  
     46420   0.65221952    -0.69598088    -0.04382658     0.091900848  
     46430   0.65324837    -0.69652908    -0.043346037    0.089643608  
     46440   0.65523657    -0.69357654    -0.038405495    0.090612664  
     46450   0.65175642    -0.69063389    -0.03894265     0.093014828  
     46460   0.65052322    -0.69081006    -0.040351891    0.089559582  
     46470   0.64807049    -0.69235767    -0.044351986    0.084028564  
     46480   0.65213745    -0.69417027    -0.042098028    0.090361507  
     46490   0.65192053    -0.69552191    -0.043666568    0.085845312  
     46500   0.65149917    -0.69759033    -0.046156304    0.084796688  
     46510   0.65234356    -0.69861183    -0.046333506    0.087175278  
     46520   0.64951799    -0.69916335    -0.04971031     0.089882048  
     46530   0.64784812    -0.70031722    -0.052533878    0.085494805  
     46540   0.64880547    -0.70107338    -0.052332798    0.087622599  
     46550   0.64762445    -0.69854751    -0.050987814    0.094446999  
     46560   0.64284298    -0.69503443    -0.052255729    0.098952401  
     46570   0.64432854    -0.70182651    -0.057562403    0.079762187  
     46580   0.64096877    -0.70097438    -0.060069699    0.081403385  
     46590   0.64411412    -0.70283901    -0.058789297    0.07963494   
     46600   0.64477037    -0.701809      -0.057103112    0.092187765  
     46610   0.64178593    -0.69794078    -0.056219025    0.10564847   
     46620   0.64366762    -0.70483239    -0.061229135    0.087454182  
     46630   0.64186734    -0.70106433    -0.059261178    0.083417218  
     46640   0.63777602    -0.69708866    -0.059376419    0.08749612   
     46650   0.63987432    -0.69961495    -0.059804615    0.082029249  
     46660   0.64302593    -0.70191465    -0.058953019    0.083008636  
     46670   0.64175194    -0.6964827     -0.054794933    0.10590512   
     46680   0.6427346     -0.6994844     -0.056814076    0.10119804   
     46690   0.6439087     -0.70197771    -0.058133403    0.094328081  
     46700   0.64678895    -0.70498629    -0.058262021    0.090326935  
     46710   0.64167092    -0.69913533    -0.057528577    0.10607829   
     46720   0.64261566    -0.70180558    -0.059254179    0.092384613  
     46730   0.63990879    -0.70648108    -0.066636277    0.076616297  
     46740   0.63558854    -0.69818159    -0.062656608    0.093587883  
     46750   0.63637997    -0.69845963    -0.062143292    0.085848242  
     46760   0.63880007    -0.70100512    -0.062268937    0.07703792   
     46770   0.64022796    -0.6997381     -0.059574153    0.081423288  
     46780   0.63908745    -0.70016096    -0.061137413    0.093526249  
     46790   0.63964665    -0.69917667    -0.059593981    0.096930234  
     46800   0.64017074    -0.70341138    -0.063304651    0.086207466  
     46810   0.63464778    -0.69911603    -0.06453171     0.092868649  
     46820   0.6360206     -0.70066177    -0.064704773    0.08450888   
     46830   0.63940005    -0.70365469    -0.06431858     0.08002374   
     46840   0.63933941    -0.70024345    -0.060967969    0.084164547  
     46850   0.63679636    -0.70109211    -0.064359436    0.08302838   
     46860   0.63426589    -0.70574292    -0.071540457    0.072477298  
     46870   0.63654176    -0.70517843    -0.068700326    0.081518219  
     46880   0.63315061    -0.70073766    -0.067650364    0.091116273  
     46890   0.63188857    -0.70358723    -0.071761848    0.082043491  
     46900   0.62959062    -0.70168958    -0.072161923    0.085001673  
     46910   0.62892684    -0.70157153    -0.072707583    0.082068066  
     46920   0.6269471     -0.70241053    -0.075526123    0.077916911  
     46930   0.62657247    -0.7041611     -0.077651292    0.080015713  
     46940   0.62730403    -0.70028114    -0.073039839    0.089402132  
     46950   0.63215441    -0.7085268     -0.076435607    0.074864229  
     46960   0.63027888    -0.70465434    -0.07443848     0.090888947  
     46970   0.62899824    -0.70644658    -0.077511235    0.090894229  
     46980   0.63099954    -0.70793862    -0.077002185    0.086554739  
     46990   0.62954312    -0.70977383    -0.080293666    0.076037345  
     47000   0.63119188    -0.71012413    -0.078995375    0.083225766  
     47010   0.63732919    -0.71437328    -0.077107823    0.075553327  
     47020   0.63324261    -0.70988254    -0.076703254    0.089957278  
     47030   0.6341559     -0.7143186     -0.080226122    0.08228675   
     47040   0.62681054    -0.71080044    -0.084052584    0.088090833  
     47050   0.63077545    -0.71904116    -0.08832878     0.068971433  
     47060   0.63252894    -0.71960957    -0.08714388     0.073853031  
     47070   0.63077377    -0.71964543    -0.088934745    0.080035892  
     47080   0.62761764    -0.71922611    -0.091671237    0.08582163   
     47090   0.62281788    -0.71425112    -0.091495519    0.095498958  
     47100   0.62310461    -0.71750733    -0.094465026    0.082086483  
     47110   0.6224241     -0.71458595    -0.092224088    0.085556639  
     47120   0.62534182    -0.71696494    -0.091685656    0.085261632  
     47130   0.62689975    -0.71516786    -0.088330794    0.085397782  
     47140   0.62925283    -0.7174153     -0.088225395    0.077310278  
     47150   0.62750598    -0.71829609    -0.090852856    0.078688711  
     47160   0.6259752     -0.72034673    -0.09443413     0.079435214  
     47170   0.62855011    -0.72329236    -0.094805109    0.073932827  
     47180   0.62835631    -0.7226329     -0.094339422    0.082826239  
     47190   0.62877341    -0.72428029    -0.09556976     0.090067276  
     47200   0.63047907    -0.72726237    -0.096846345    0.088326551  
     47210   0.62779278    -0.72239915    -0.094669147    0.090589521  
     47220   0.63016933    -0.72583797    -0.095731652    0.077507028  
     47230   0.62594314    -0.72118737    -0.095306826    0.08399977   
     47240   0.62595262    -0.72405512    -0.098165097    0.078386194  
     47250   0.62493402    -0.72565374    -0.10078222     0.079427999  
     47260   0.62173534    -0.7258321     -0.10415893     0.08392583   
     47270   0.62301014    -0.73086212    -0.10791428     0.074377998  
     47280   0.62100753    -0.72753583    -0.1065904      0.087633085  
     47290   0.62130051    -0.73333751    -0.11209913     0.077832012  
     47300   0.625455      -0.73397766    -0.10858521     0.07985458   
     47310   0.62595243    -0.73366877    -0.10777893     0.080139066  
     47320   0.62585612    -0.73352879    -0.10773526     0.080633002  
     47330   0.61588074    -0.72824611    -0.11242696     0.088678994  
     47340   0.61611636    -0.72812177    -0.11206702     0.08537328   
     47350   0.6171662     -0.73122526    -0.11412077     0.07204827   
     47360   0.61427536    -0.73091079    -0.11669686     0.065865245  
     47370   0.61197196    -0.72740844    -0.11549767     0.068711361  
     47380   0.61474845    -0.7300273     -0.11534032     0.073240655  
     47390   0.61076932    -0.72113298    -0.11042473     0.094017053  
     47400   0.60992864    -0.72527696    -0.11540931     0.087919345  
     47410   0.61335941    -0.72922508    -0.11592701     0.075380734  
     47420   0.61738721    -0.73124208    -0.11391661     0.070793147  
     47430   0.61270037    -0.72608917    -0.11345007     0.08360894   
     47440   0.61311232    -0.72511451    -0.1120635      0.085219769  
     47450   0.61044979    -0.72549424    -0.1151055      0.083132455  
     47460   0.61145483    -0.72655431    -0.11516063     0.077235911  
     47470   0.6121444     -0.72651323    -0.11443005     0.082533593  
     47480   0.61456538    -0.72855922    -0.1140553      0.080342287  
     47490   0.61863092    -0.72975178    -0.11118272     0.075499342  
     47500   0.61737815    -0.72718248    -0.10986607     0.087900931  
     47510   0.62104255    -0.73208657    -0.11110612     0.073643823  
     47520   0.61515943    -0.72979605    -0.11469813     0.077401428  
     47530   0.60908093    -0.72851784    -0.11949782     0.074948354  
     47540   0.60776406    -0.72701733    -0.11931405     0.078545124  
     47550   0.61321911    -0.72572795    -0.11257016     0.083919135  
     47560   0.61298286    -0.72325316    -0.1103316      0.08943708   
     47570   0.61311501    -0.72960436    -0.11655067     0.073270627  
     47580   0.61870898    -0.72848622    -0.10983911     0.076438214  
     47590   0.61791381    -0.72859804    -0.11074602     0.075655156  
     47600   0.60968224    -0.72464024    -0.11501896     0.081830733  
     47610   0.60859058    -0.72667571    -0.11814599     0.077249577  
     47620   0.60795039    -0.72875775    -0.12086815     0.076904818  
     47630   0.60890018    -0.72966314    -0.12082385     0.083075034  
     47640   0.6109848     -0.73040387    -0.11948017     0.084566264  
     47650   0.61319823    -0.73265246    -0.11951555     0.075515044  
     47660   0.61179861    -0.73455465    -0.12281722     0.072061325  
     47670   0.61153174    -0.73489132    -0.12342073     0.072858018  
     47680   0.60758522    -0.73092495    -0.12340049     0.0809506    
     47690   0.60983859    -0.7322644     -0.1224868      0.083858574  
     47700   0.60952673    -0.73227095    -0.12280517     0.080870126  
     47710   0.60746485    -0.73298327    -0.12557917     0.078932326  
     47720   0.59947235    -0.73301672    -0.13360432     0.079404528  
     47730   0.59771118    -0.73404975    -0.13639835     0.075245427  
     47740   0.59944496    -0.73566673    -0.13628171     0.062728224  
     47750   0.59654897    -0.73116185    -0.13467254     0.069355877  
     47760   0.59466696    -0.73250788    -0.13790039     0.07389509   
     47770   0.59838619    -0.73258705    -0.1342607      0.072405184  
     47780   0.6035029     -0.73744266    -0.13400011     0.064027169  
     47790   0.60192422    -0.73738817    -0.13552415     0.067467468  
     47800   0.59695594    -0.73531605    -0.13841981     0.078799097  
     47810   0.59859177    -0.73668258    -0.13815067     0.084407052  
     47820   0.60295928    -0.74186014    -0.13896115     0.070864288  
     47830   0.60455444    -0.73935042    -0.13485643     0.082100575  
     47840   0.60274586    -0.74202606    -0.13934048     0.07947204   
     47850   0.6033629     -0.74357599    -0.14027343     0.078434017  
     47860   0.60258725    -0.74198856    -0.13946157     0.080254074  
     47870   0.59859268    -0.74162666    -0.14309384     0.081199707  
     47880   0.59649955    -0.74478549    -0.14834559     0.072393794  
     47890   0.59823224    -0.74086012    -0.1426877      0.081673003  
     47900   0.6057897     -0.74706554    -0.14133643     0.067398011  
     47910   0.60546807    -0.74573681    -0.14032929     0.083020291  
     47920   0.60583818    -0.74630741    -0.14052981     0.088313341  
     47930   0.60564408    -0.74899589    -0.14341237     0.078369016  
     47940   0.60212444    -0.74688094    -0.14481672     0.080409054  
     47950   0.60048452    -0.74569266    -0.14526819     0.074883481  
     47960   0.59620794    -0.74568448    -0.14953616     0.078948456  
     47970   0.59392887    -0.74707967    -0.15321019     0.080100269  
     47980   0.59052134    -0.74549162    -0.15502933     0.077819029  
     47990   0.59407466    -0.74895313    -0.15493788     0.070526955  
     48000   0.59648584    -0.74787464    -0.15144845     0.075238029  
     48010   0.59178149    -0.74317349    -0.15145118     0.075464269  
     48020   0.59358804    -0.74149082    -0.14796214     0.074633935  
     48030   0.59840846    -0.74359112    -0.1452425      0.072335261  
     48040   0.59704336    -0.74566631    -0.14868266     0.07788882   
     48050   0.59563       -0.74838585    -0.15281541     0.074053003  
     48060   0.59242105    -0.74631388    -0.15395208     0.075914694  
     48070   0.58961904    -0.74592953    -0.15636945     0.075914282  
     48080   0.59057835    -0.74252621    -0.15200691     0.075127204  
     48090   0.59317762    -0.74603904    -0.15292074     0.066382868  
     48100   0.59388063    -0.75016638    -0.15634514     0.064386896  
     48110   0.59233231    -0.74896344    -0.15669036     0.069916227  
     48120   0.59497222    -0.75002864    -0.15511592     0.077776062  
     48130   0.59049839    -0.75243392    -0.16199458     0.072583541  
     48140   0.58842526    -0.7529963     -0.16462988     0.069730498  
     48150   0.58683754    -0.75527389    -0.16849503     0.074159753  
     48160   0.58898646    -0.75799315    -0.16906558     0.074332844  
     48170   0.59012143    -0.75417243    -0.16411001     0.084642482  
     48180   0.5908533     -0.75634554    -0.16555132     0.073401877  
     48190   0.58817644    -0.75408494    -0.16596732     0.076881037  
     48200   0.58584279    -0.7573336     -0.17154939     0.073773531  
     48210   0.5857881     -0.75733258    -0.17160305     0.07499401   
     48220   0.58652586    -0.75647361    -0.17000641     0.076671542  
     48230   0.58387753    -0.75606334    -0.17224421     0.077378143  
     48240   0.58200232    -0.75363986    -0.17169574     0.081694417  
     48250   0.58422991    -0.75994479    -0.1757733      0.070770646  
     48260   0.58572659    -0.76022737    -0.17455935     0.072578609  
     48270   0.58492451    -0.75763396    -0.17276794     0.078679689  
     48280   0.58520175    -0.75896496    -0.17382173     0.074157122  
     48290   0.58612111    -0.76508036    -0.17901786     0.059599183  
     48300   0.58388951    -0.7642809     -0.18044978     0.070934914  
     48310   0.58333227    -0.76478313    -0.18150919     0.070626754  
     48320   0.58549273    -0.76656167    -0.18112748     0.066176196  
     48330   0.5843191     -0.76577004    -0.18150937     0.067662315  
     48340   0.58241386    -0.76459045    -0.18223483     0.070923647  
     48350   0.58117683    -0.76551301    -0.1843943      0.074717883  
     48360   0.58310557    -0.76513697    -0.18208971     0.080845091  
     48370   0.58364502    -0.76802786    -0.18444121     0.077534119  
     48380   0.5846085     -0.7679205     -0.18337046     0.081852184  
     48390   0.58248237    -0.76561554    -0.18319142     0.078498229  
     48400   0.58408053    -0.76943328    -0.18541116     0.063522053  
     48410   0.58206476    -0.77157867    -0.18957212     0.06751327   
     48420   0.57789123    -0.77334694    -0.1955135      0.072346182  
     48430   0.57872497    -0.77236083    -0.19369373     0.075168658  
     48440   0.57899186    -0.76682773    -0.18789377     0.079968801  
     48450   0.57804059    -0.76872154    -0.19073875     0.073678881  
     48460   0.57365032    -0.76733818    -0.19374523     0.081148613  
     48470   0.57134172    -0.76895934    -0.19767476     0.071025967  
     48480   0.57388744    -0.76984428    -0.19601423     0.063302081  
     48490   0.57590419    -0.76966043    -0.19381383     0.063551821  
     48500   0.57165681    -0.76629399    -0.19469435     0.076046028  
     48510   0.57040391    -0.77354766    -0.20320078     0.060714756  
     48520   0.57113201    -0.77140559    -0.2003307      0.072720574  
     48530   0.57831189    -0.7765087     -0.19825464     0.074427596  
     48540   0.57466548    -0.77607307    -0.20146505     0.082026002  
     48550   0.57338962    -0.77909316    -0.20576088     0.075282043  
     48560   0.57478071    -0.77329582    -0.19857259     0.081937165  
     48570   0.57415916    -0.77584019    -0.20173844     0.068998013  
     48580   0.57469759    -0.77404985    -0.19940973     0.068422138  
     48590   0.57746707    -0.7756444     -0.19823508     0.062366577  
     48600   0.57386984    -0.77473862    -0.20092617     0.06783894   
     48610   0.57141778    -0.77101545    -0.19965481     0.076840874  
     48620   0.56956354    -0.77339717    -0.20389058     0.075394988  
     48630   0.56901589    -0.77724075    -0.20828176     0.061801706  
     48640   0.56810883    -0.77623127    -0.20817925     0.061531327  
     48650   0.56897694    -0.77526671    -0.20634667     0.074030066  
     48660   0.57329721    -0.78000868    -0.20676881     0.065182388  
     48670   0.57242428    -0.77926528    -0.20689824     0.070164644  
     48680   0.57406196    -0.78196448    -0.20795992     0.070525616  
     48690   0.56987731    -0.78013501    -0.21031469     0.07768337   
     48700   0.57003958    -0.78390373    -0.21392115     0.065373676  
     48710   0.57018573    -0.78346787    -0.21333916     0.070137821  
     48720   0.5684963     -0.78320002    -0.21476058     0.071603542  
     48730   0.56953078    -0.78848311    -0.21900928     0.061208072  
     48740   0.56500265    -0.78407005    -0.2191239      0.080091203  
     48750   0.56458731    -0.78777251    -0.22324167     0.069161298  
     48760   0.5636397     -0.7881626     -0.22457927     0.070574773  
     48770   0.56402172    -0.789652      -0.22568668     0.070066776  
     48780   0.56179108    -0.78860258    -0.22686768     0.070062428  
     48790   0.56461003    -0.79096322    -0.22640965     0.057223195  
     48800   0.5659376     -0.78940928    -0.22352827     0.062238663  
     48810   0.55877125    -0.78391121    -0.22519584     0.074035347  
     48820   0.55895182    -0.78597533    -0.2270794      0.070421004  
     48830   0.56196829    -0.78959087    -0.22767878     0.06282531   
     48840   0.56437722    -0.79274079    -0.22842001     0.064483201  
     48850   0.56138119    -0.7880003     -0.22667524     0.076035224  
     48860   0.56340143    -0.79210564    -0.22876055     0.067474283  
     48870   0.55915641    -0.79110588    -0.23200539     0.067855252  
     48880   0.55863114    -0.79148018    -0.2329049      0.060968139  
     48890   0.5567954     -0.79027551    -0.23353579     0.060387482  
     48900   0.55548182    -0.79196998    -0.23654371     0.070527634  
     48910   0.55724852    -0.79146805    -0.23427526     0.073787879  
     48920   0.56090323    -0.79284582    -0.23199868     0.074884883  
     48930   0.56357391    -0.79726288    -0.23374533     0.063909571  
     48940   0.56276718    -0.79724525    -0.23453435     0.060945771  
     48950   0.55980445    -0.7942071     -0.23445862     0.066351048  
     48960   0.55934467    -0.79861154    -0.2393228      0.064512833  
     48970   0.55836594    -0.80029836    -0.24198825     0.066591357  
     48980   0.55482785    -0.79840719    -0.24363482     0.059189544  
     48990   0.55647432    -0.7942772     -0.23785853     0.068909308  
     49000   0.55369709    -0.79848776    -0.24484604     0.051934543  
     49010   0.55100971    -0.79342219    -0.24246758     0.06389534   
     49020   0.55538338    -0.79393083    -0.23860299     0.06891932   
     49030   0.55360169    -0.79418184    -0.24063551     0.067874895  
     49040   0.5513397     -0.7963383     -0.24505374     0.061034277  
     49050   0.55132771    -0.79621038    -0.24493781     0.060172587  
     49060   0.55097317    -0.79615005    -0.24523198     0.057720802  
     49070   0.55336897    -0.79663119    -0.24331756     0.058716761  
     49080   0.55072426    -0.79563908    -0.2449699      0.062711476  
     49090   0.54879135    -0.79773125    -0.24899478     0.059412027  
     49100   0.54926372    -0.79536861    -0.24615981     0.059589405  
     49110   0.54753373    -0.79193196    -0.24445299     0.063156772  
     49120   0.54651732    -0.79391009    -0.24744742     0.059131541  
     49130   0.54846691    -0.79666306    -0.248251       0.056489506  
     49140   0.54934065    -0.79426153    -0.24497581     0.064630343  
     49150   0.54941087    -0.79702701    -0.24767108     0.063653524  
     49160   0.55079597    -0.79968739    -0.2489465      0.059881087  
     49170   0.54685484    -0.79453531    -0.24773515     0.068330337  
     49180   0.55141673    -0.7993353     -0.24797371     0.056690736  
     49190   0.55233733    -0.79707469    -0.24479259     0.061887693  
     49200   0.54802149    -0.79778535    -0.24981865     0.064847929  
     49210   0.54811906    -0.80135528    -0.25329102     0.064525264  
     49220   0.54718885    -0.79855565    -0.25142151     0.074425269  
     49230   0.54804034    -0.80396463    -0.25597909     0.064225197  
     49240   0.54501234    -0.80125313    -0.25629529     0.069159545  
     49250   0.54383757    -0.80044498    -0.2566618      0.070002235  
     49260   0.54606341    -0.80432592    -0.25831711     0.059293584  
     49270   0.54775911    -0.8018499     -0.25414556     0.062507236  
     49280   0.54495439    -0.80030104    -0.25540114     0.065021323  
     49290   0.54212413    -0.79997604    -0.25790612     0.067089046  
     49300   0.54344642    -0.80560031    -0.26220824     0.059289512  
     49310   0.54279849    -0.80518846    -0.26244424     0.057091031  
     49320   0.5396653     -0.80586658    -0.26625524     0.053683559  
     49330   0.53406859    -0.80484183    -0.27082666     0.056875804  
     49340   0.53782589    -0.80418559    -0.26641348     0.069725161  
     49350   0.53723617    -0.80406426    -0.26688182     0.065668982  
     49360   0.54470897    -0.81184201    -0.26718751     0.049777454  
     49370   0.53988424    -0.81007292    -0.27024266     0.055207716  
     49380   0.5393121     -0.8083722     -0.26911403     0.053966206  
     49390   0.53943084    -0.80711079    -0.26773389     0.052393321  
     49400   0.53656493    -0.80619664    -0.26968537     0.058794336  
     49410   0.5395127     -0.80944313    -0.26998438     0.060783792  
     49420   0.5425869     -0.81013349    -0.26760085     0.062510431  
     49430   0.54273175    -0.81307442    -0.27039694     0.053828937  
     49440   0.54006       -0.80993641    -0.26993042     0.06374427   
     49450   0.54167729    -0.81333132    -0.2717082      0.059943043  
     49460   0.54035647    -0.8165087     -0.27620626     0.056985197  
     49470   0.53964395    -0.81938397    -0.27979398     0.05516503   
     49480   0.5404635     -0.82046282    -0.28005336     0.055336491  
     49490   0.54111996    -0.82022724    -0.27916139     0.057701765  
     49500   0.53931297    -0.82067095    -0.28141192     0.060768591  
     49510   0.54027888    -0.82541331    -0.28518846     0.061013685  
     49520   0.53972878    -0.82619114    -0.28651634     0.063248049  
     49530   0.53967191    -0.82922711    -0.28960917     0.06235658   
     49540   0.53487852    -0.8266436     -0.29181856     0.064623746  
     49550   0.53398563    -0.82920803    -0.2952758      0.052835317  
     49560   0.53391217    -0.83013482    -0.29627604     0.055059675  
     49570   0.53078068    -0.82783553    -0.29710792     0.069110908  
     49580   0.52550445    -0.82684531    -0.30139341     0.069980908  
     49590   0.52428888    -0.82879883    -0.30456238     0.063622218  
     49600   0.52516275    -0.83283413    -0.30772389     0.056857435  
     49610   0.52708824    -0.83340572    -0.30637019     0.064624154  
     49620   0.52966838    -0.83278036    -0.30316495     0.064941089  
     49630   0.52886863    -0.83297306    -0.30415732     0.061583771  
     49640   0.5299413     -0.83380304    -0.30391474     0.047002199  
     49650   0.5324106     -0.83277369    -0.30041633     0.047118389  
     49660   0.5296322     -0.82999718    -0.30041795     0.061208237  
     49670   0.53455975    -0.83662424    -0.30211794     0.061148403  
     49680   0.53397251    -0.83664364    -0.30272452     0.068932193  
     49690   0.53580644    -0.84113122    -0.30537837     0.063023682  
     49700   0.53006411    -0.83978353    -0.30977243     0.06741492   
     49710   0.52933539    -0.84274867    -0.31346621     0.057356513  
     49720   0.52819062    -0.84304011    -0.31490231     0.054087676  
     49730   0.529338      -0.84458325    -0.31529819     0.056256157  
     49740   0.5257239     -0.84202063    -0.31634931     0.068501785  
     49750   0.5234776     -0.84578069    -0.32235544     0.061341132  
     49760   0.51979011    -0.8427577     -0.32301957     0.057895447  
     49770   0.52117909    -0.84256906    -0.3214421      0.048260236  
     49780   0.52252132    -0.84173312    -0.31926405     0.047191643  
     49790   0.52201687    -0.84070146    -0.31873679     0.04547218   
     49800   0.51939421    -0.8394026     -0.32006033     0.047111183  
     49810   0.51796011    -0.83764911    -0.31974079     0.056897462  
     49820   0.52236676    -0.84185013    -0.3195356      0.050912213  
     49830   0.52081591    -0.83895772    -0.3181939      0.057065349  
     49840   0.51820378    -0.84051362    -0.32236166     0.062065451  
     49850   0.51776146    -0.84288372    -0.32517404     0.061713018  
     49860   0.51723702    -0.84208436    -0.32489906     0.0588016    
     49870   0.52143259    -0.8490573     -0.32767685     0.042121782  
     49880   0.51647886    -0.84627636    -0.32984915     0.065620833  
     49890   0.51682364    -0.85115356    -0.3343816      0.059594576  
     49900   0.520267      -0.85103609    -0.33082112     0.049193341  
     49910   0.52071054    -0.85408708    -0.33342861     0.042897003  
     49920   0.52061388    -0.85211618    -0.33155437     0.057466284  
     49930   0.52189062    -0.85419622    -0.33235779     0.057062173  
     49940   0.52232057    -0.85389962    -0.33163127     0.063408622  
     49950   0.52134826    -0.85512434    -0.33382821     0.06426026   
     49960   0.51786462    -0.854252      -0.33643917     0.056818614  
     49970   0.51484754    -0.84978022    -0.33498417     0.056016953  
     49980   0.51532783    -0.85341414    -0.33813784     0.051216958  
     49990   0.5112533     -0.85089009    -0.33968791     0.049353419  
     50000   0.51567351    -0.8519576     -0.33633565     0.040766803  
     50010   0.51909009    -0.85707612    -0.33803794     0.04176033   
     50020   0.51295625    -0.84976753    -0.33686257     0.065550994  
     50030   0.51276729    -0.85318646    -0.34047045     0.058192903  
     50040   0.51181579    -0.85793777    -0.34617317     0.047184822  
     50050   0.50957528    -0.85618094    -0.34665661     0.054000282  
     50060   0.50928637    -0.85916861    -0.34993316     0.055743785  
     50070   0.50938629    -0.86166739    -0.35233204     0.059859721  
     50080   0.51064274    -0.86471001    -0.35411833     0.052867302  
     50090   0.51521849    -0.86458948    -0.34942251     0.054204542  
     50100   0.51219618    -0.8646343     -0.35248933     0.05044418   
     50110   0.51166421    -0.86438713    -0.35277409     0.058357609  
     50120   0.51111773    -0.86510869    -0.35404207     0.061077318  
     50130   0.51600573    -0.86410541    -0.34815129     0.06271356   
     50140   0.51559147    -0.86315017    -0.34761026     0.062669268  
     50150   0.51542459    -0.86602428    -0.35065123     0.056157542  
     50160   0.51435029    -0.86526018    -0.35096133     0.056737673  
     50170   0.51146796    -0.86386022    -0.35244341     0.058757886  
     50180   0.50978584    -0.86599543    -0.35626057     0.050964418  
     50190   0.50560715    -0.8625515     -0.35699491     0.06000284   
     50200   0.50376747    -0.8626644     -0.3589473      0.058299463  
     50210   0.50442377    -0.86903652    -0.36466319     0.042569579  
     50220   0.5050435     -0.86814379    -0.36315079     0.04742102   
     50230   0.50618569    -0.86955923    -0.36342415     0.05096255   
     50240   0.50939073    -0.8724041     -0.36306431     0.052933137  
     50250   0.50611494    -0.87277565    -0.36671132     0.047861379  
     50260   0.50241782    -0.87009247    -0.3677249      0.050597711  
     50270   0.50571254    -0.87146145    -0.36579948     0.048731788  
     50280   0.5052738     -0.87035919    -0.36513592     0.052030251  
     50290   0.50696965    -0.8717721     -0.36485314     0.042360052  
     50300   0.5022761     -0.86760834    -0.36538247     0.043379365  
     50310   0.50188507    -0.86701305    -0.36517818     0.04859063   
     50320   0.50238551    -0.86913159    -0.36679632     0.047038215  
     50330   0.50556476    -0.87117811    -0.3656639      0.053101348  
     50340   0.50588426    -0.87338839    -0.36755472     0.055075101  
     50350   0.50323777    -0.87456826    -0.37138081     0.055111286  
     50360   0.50038895    -0.87469523    -0.37435632     0.049690957  
     50370   0.50067805    -0.87453834    -0.37391035     0.048690101  
     50380   0.50044028    -0.87764607    -0.37725583     0.043905352  
     50390   0.49899969    -0.87319267    -0.37424288     0.063414023  
     50400   0.50623414    -0.88006042    -0.3738769      0.055364717  
     50410   0.50491146    -0.88347604    -0.37861507     0.044405054  
     50420   0.49842992    -0.87641377    -0.37803369     0.059306951  
     50430   0.49974577    -0.87927106    -0.37957527     0.049567445  
     50440   0.49646116    -0.87638473    -0.37997322     0.056802085  
     50450   0.49316388    -0.87889071    -0.38577615     0.051545096  
     50460   0.49099445    -0.87599401    -0.38504866     0.052470819  
     50470   0.49448314    -0.8773068     -0.38287311     0.052820877  
     50480   0.50069793    -0.87816571    -0.37751784     0.05890146   
     50490   0.50074573    -0.88098753    -0.38029188     0.052093676  
     50500   0.4991525     -0.88312414    -0.38402156     0.04676682   
     50510   0.49775992    -0.88195989    -0.38424975     0.044598577  
     50520   0.49741568    -0.88309555    -0.38572961     0.043603294  
     50530   0.49569173    -0.88290644    -0.38726428     0.048607904  
     50540   0.49805291    -0.88319766    -0.38519455     0.048016667  
     50550   0.4965383     -0.88130755    -0.38481891     0.045642374  
     50560   0.49983634    -0.88118544    -0.38139908     0.050896739  
     50570   0.49692507    -0.88380348    -0.3869281      0.04466129   
     50580   0.4949951     -0.88747448    -0.39252887     0.038948615  
     50590   0.49395813    -0.88664056    -0.39273183     0.043056183  
     50600   0.49431241    -0.88689318    -0.3926302      0.053342744  
     50610   0.49612554    -0.88679881    -0.39072288     0.054054773  
     50620   0.49512315    -0.88620966    -0.39113601     0.045860447  
     50630   0.49488343    -0.89035052    -0.39551658     0.046052843  
     50640   0.49393905    -0.8898948     -0.39600514     0.052559852  
     50650   0.49372071    -0.89078604    -0.3971147      0.04430616   
     50660   0.4924161     -0.88995469    -0.39758784     0.048587778  
     50670   0.4946755     -0.89134542    -0.39671938     0.044671824  
     50680   0.49797225    -0.89392463    -0.39600218     0.047883637  
     50690   0.49817432    -0.89587095    -0.39774645     0.052815541  
     50700   0.49441673    -0.9013257     -0.40695841     0.046813431  
     50710   0.49365111    -0.9040263     -0.41042455     0.04864358   
     50720   0.49097642    -0.90381587    -0.41288855     0.055222216  
     50730   0.49047549    -0.90752314    -0.4170967      0.054466821  
     50740   0.49209505    -0.91045764    -0.4184118      0.054495213  
     50750   0.48976237    -0.90781237    -0.41809897     0.058833404  
     50760   0.4924909     -0.91326565    -0.420824       0.047033496  
     50770   0.49242992    -0.91363643    -0.42125575     0.053960627  
     50780   0.49148228    -0.916127      -0.42469387     0.054965736  
     50790   0.49540305    -0.91379202    -0.41843851     0.060464849  
     50800   0.4942345     -0.91643655    -0.42225147     0.048840044  
     50810   0.49200625    -0.91373571    -0.42177866     0.050652683  
     50820   0.49215603    -0.9162226     -0.42411579     0.042164069  
     50830   0.48868013    -0.91336136    -0.42473009     0.041339079  
     50840   0.4893873     -0.91507844    -0.42574008     0.038334516  
     50850   0.48504173    -0.91443443    -0.4294412      0.047162001  
     50860   0.48575918    -0.9140641     -0.4283535      0.051491345  
     50870   0.48597799    -0.91800086    -0.43207148     0.049324578  
     50880   0.48380072    -0.91894367    -0.43519132     0.046643187  
     50890   0.48433269    -0.91860047    -0.43431622     0.050699775  
     50900   0.48934829    -0.92546989    -0.43617054     0.03321401   
     50910   0.4913452     -0.92481593    -0.43351986     0.026083321  
     50920   0.48524043    -0.92437564    -0.43918373     0.032294117  
     50930   0.47972115    -0.92238928    -0.4427161      0.043548548  
     50940   0.47794402    -0.92311188    -0.44521566     0.044159377  
     50950   0.47612778    -0.92527117    -0.44919101     0.039699672  
     50960   0.47414147    -0.92274947    -0.44865542     0.047178636  
     50970   0.47783829    -0.9287302     -0.45093969     0.0354831    
     50980   0.479034      -0.93072318    -0.45173708     0.039871998  
     50990   0.48052093    -0.92835734    -0.44788447     0.051934637  
     51000   0.48073927    -0.92808467    -0.44739348     0.049880034  
     51010   0.47718762    -0.92957378    -0.45243387     0.045505485  
     51020   0.47658398    -0.93117667    -0.45464035     0.042244422  
     51030   0.47406868    -0.9281734     -0.45415212     0.05228019   
     51040   0.47295418    -0.93259818    -0.45969129     0.047859088  
     51050   0.47368578    -0.93516935    -0.46153094     0.04842302   
     51060   0.47484788    -0.93540048    -0.46060009     0.043002391  
     51070   0.47220251    -0.93600473    -0.46384944     0.042218016  
     51080   0.47278124    -0.9389365     -0.46620254     0.046822531  
     51090   0.47325165    -0.9444474     -0.47124308     0.041490522  
     51100   0.47197889    -0.94368375    -0.47175206     0.046677013  
     51110   0.47394844    -0.94475234    -0.47085129     0.042524462  
     51120   0.46905236    -0.94232001    -0.47331455     0.043266279  
     51130   0.47011733    -0.94605715    -0.47598683     0.040330138  
     51140   0.4705761     -0.94316715    -0.4726381      0.05302741   
     51150   0.47279285    -0.94745957    -0.474714       0.046464443  
     51160   0.47249512    -0.95057438    -0.47812651     0.042539943  
     51170   0.4770474     -0.95303911    -0.47603941     0.039887488  
     51180   0.4740762     -0.95507841    -0.48104962     0.034207198  
     51190   0.47176663    -0.95608251    -0.48436307     0.043376129  
     51200   0.47702072    -0.9578624     -0.48088938     0.051883414  
     51210   0.47622207    -0.95575114    -0.47957669     0.057997956  
     51220   0.47480403    -0.95596383    -0.48120728     0.051567936  
     51230   0.47119603    -0.95165806    -0.48050915     0.050909033  
     51240   0.4730036     -0.95837602    -0.48541973     0.034938908  
     51250   0.4706767     -0.95626693    -0.48563729     0.032554517  
     51260   0.46897464    -0.9547638     -0.48583606     0.031840676  
     51270   0.46605796    -0.95384559    -0.48783424     0.034327493  
     51280   0.46251338    -0.95394049    -0.49147336     0.039402705  
     51290   0.46331398    -0.95722897    -0.49396131     0.040178196  
     51300   0.46386797    -0.95993312    -0.49611153     0.040596922  
     51310   0.46484197    -0.95823196    -0.49343648     0.045629948  
     51320   0.46447388    -0.9605557     -0.49612827     0.038448352  
     51330   0.46693804    -0.9588612     -0.49196985     0.042826804  
     51340   0.46966935    -0.96223166    -0.49260927     0.033541036  
     51350   0.46733762    -0.96408514    -0.49679425     0.030645305  
     51360   0.46428554    -0.96409546    -0.49985635     0.032164508  
     51370   0.46225274    -0.96428616    -0.50207964     0.038759367  
     51380   0.46346343    -0.96661203    -0.50319495     0.037598329  
     51390   0.46274563    -0.96801493    -0.50531557     0.036028343  
     51400   0.45904291    -0.96693782    -0.50794081     0.036598513  
     51410   0.45956889    -0.96334476    -0.50382184     0.047189724  
     51420   0.46169074    -0.96581464    -0.50417007     0.03655679   
     51430   0.45891425    -0.96492681    -0.50605845     0.036098296  
     51440   0.45896222    -0.96685657    -0.50794024     0.033107813  
     51450   0.45992623    -0.96913447    -0.50925424     0.034444261  
     51460   0.46257992    -0.97125689    -0.50872323     0.034201297  
     51470   0.46102728    -0.96973924    -0.50875806     0.044748012  
     51480   0.46342818    -0.97332545    -0.50994361     0.044130506  
     51490   0.4603417     -0.97178705    -0.51149138     0.05292727   
     51500   0.45828856    -0.97636692    -0.51812419     0.051236843  
     51510   0.45995525    -0.98217197    -0.52226271     0.034131497  
     51520   0.45451958    -0.97560674    -0.52113262     0.042262536  
     51530   0.45723214    -0.97722803    -0.52004161     0.029653496  
     51540   0.45658921    -0.97480969    -0.51826614     0.029126852  
     51550   0.45799031    -0.9774853     -0.5195408      0.029111457  
     51560   0.45669792    -0.97821324    -0.52156099     0.032636337  
     51570   0.45942536    -0.98093487    -0.52155545     0.037400637  
     51580   0.46166906    -0.98382588    -0.52220299     0.037779851  
     51590   0.46439031    -0.98658899    -0.52224511     0.028589674  
     51600   0.46307216    -0.98726522    -0.52423937     0.033479487  
     51610   0.45779192    -0.98449101    -0.52674487     0.051720705  
     51620   0.4548047     -0.98746868    -0.53270947     0.041830137  
     51630   0.45994644    -0.99306802    -0.53316758     0.030273267  
     51640   0.45722524    -0.99165318    -0.53447366     0.033247293  
     51650   0.45791361    -0.99025975    -0.53239193     0.037125895  
     51660   0.45623834    -0.99125655    -0.53506383     0.038941318  
     51670   0.45652764    -0.99174358    -0.53526159     0.04411038   
     51680   0.45426252    -0.98999645    -0.53577935     0.049889344  
     51690   0.45349489    -0.99186446    -0.53841492     0.037727317  
     51700   0.45186383    -0.99339188    -0.54157324     0.032048332  
     51710   0.45300739    -0.99353689    -0.5405748      0.023398636  
     51720   0.45174164    -0.99306921    -0.54137274     0.028209429  
     51730   0.45230722    -0.99470797    -0.54244598     0.036483474  
     51740   0.45043675    -0.99634835    -0.54595665     0.044508881  
     51750   0.45091142    -0.99716066    -0.54629433     0.038304163  
     51760   0.45258199    -1.0011298     -0.54859307     0.030709936  
     51770   0.4523277     -0.99877599    -0.54649352     0.043328146  
     51780   0.45325146    -1.0033432     -0.55013704     0.040534354  
     51790   0.45102499    -1.0028233     -0.5518434      0.04733079   
     51800   0.44830438    -1.0082334     -0.5599739      0.032892229  
     51810   0.44642281    -1.0057882     -0.55941002     0.041394998  
     51820   0.4471559     -1.0071877     -0.56007655     0.038266828  
     51830   0.44921062    -1.0086718     -0.5595061      0.032342963  
     51840   0.45060777    -1.0101082     -0.55954552     0.031533782  
     51850   0.45057133    -1.0112555     -0.56072919     0.028815768  
     51860   0.45023223    -1.0100449     -0.55985766     0.032644916  
     51870   0.44990777    -1.0103044     -0.56044161     0.033888454  
     51880   0.45189963    -1.013017      -0.5611626      0.026621264  
     51890   0.44623574    -1.0099915     -0.56380041     0.040315911  
     51900   0.44477908    -1.0132437     -0.56850915     0.034337306  
     51910   0.44826174    -1.0174571     -0.56924015     0.036264568  
     51920   0.4495413     -1.0190275     -0.56953112     0.03241252   
     51930   0.44779988    -1.0182164     -0.57046127     0.039090616  
     51940   0.44626396    -1.0164097     -0.57019034     0.042991616  
     51950   0.44960223    -1.0234289     -0.57387159     0.027332348  
     51960   0.44880752    -1.0209192     -0.57215658     0.03557813   
     51970   0.44694791    -1.0202175     -0.57331429     0.037446843  
     51980   0.44686914    -1.024376      -0.5775515      0.026995336  
     51990   0.44360864    -1.0214315     -0.57786727     0.032531838  
     52000   0.44170601    -1.0239905     -0.5823287      0.033664623  
     52010   0.43885713    -1.0253806     -0.58656735     0.026200455  
     52020   0.43634063    -1.0238144     -0.58751741     0.029258766  
     52030   0.43869742    -1.0245928     -0.58593926     0.036132866  
     52040   0.44024874    -1.0266171     -0.58641244     0.035940425  
     52050   0.4373958     -1.0267904     -0.58943831     0.038264553  
     52060   0.43701226    -1.0281202     -0.59115167     0.034977977  
     52070   0.44027802    -1.0313627     -0.5911287      0.02468235   
     52080   0.44196774    -1.0291956     -0.58727208     0.032767436  
     52090   0.4390225     -1.0301486     -0.59116999     0.046809717  
     52100   0.43895031    -1.0353054     -0.59639901     0.041387282  
     52110   0.43793905    -1.0375607     -0.59966541     0.035771964  
     52120   0.43648971    -1.0371384     -0.60069231     0.030679627  
     52130   0.43353258    -1.0342769     -0.60078766     0.036639184  
     52140   0.43615519    -1.0377315     -0.60161997     0.029642563  
     52150   0.4362628     -1.0398872     -0.60366799     0.023199673  
     52160   0.43250458    -1.0398941     -0.60743274     0.025996137  
     52170   0.43301123    -1.0425366     -0.60956864     0.032594916  
     52180   0.43251641    -1.0412924     -0.60881924     0.046123926  
     52190   0.43424541    -1.0458344     -0.61163244     0.034650152  
     52200   0.43421291    -1.0452658     -0.61109635     0.036904881  
     52210   0.43395142    -1.0485099     -0.61460192     0.027502686  
     52220   0.43314047    -1.0506069     -0.61750975     0.026685706  
     52230   0.43351927    -1.0545625     -0.62108654     0.025714032  
     52240   0.43062199    -1.0503874     -0.61980846     0.03495777   
     52250   0.43060644    -1.0522017     -0.62163833     0.033031504  
     52260   0.43227349    -1.0534681     -0.62123788     0.033771067  
     52270   0.43096835    -1.0576462     -0.62672089     0.025384771  
     52280   0.42720529    -1.0580967     -0.63093413     0.026046009  
     52290   0.42461591    -1.0572196     -0.63264614     0.034746517  
     52300   0.42481607    -1.0561656     -0.63139205     0.038616957  
     52310   0.42204973    -1.0537667     -0.63175914     0.039908293  
     52320   0.42117474    -1.0527866     -0.631654       0.037154526  
     52330   0.42295561    -1.0551675     -0.63225421     0.031849576  
     52340   0.4249042     -1.0585607     -0.63369902     0.025392002  
     52350   0.42268123    -1.0583188     -0.6356798      0.037209842  
     52360   0.42297403    -1.0605779     -0.6376462      0.035291285  
     52370   0.42229571    -1.0587201     -0.63646658     0.03114591   
     52380   0.42336294    -1.0616777     -0.63835706     0.020847029  
     52390   0.42544974    -1.0661529     -0.64074571     0.022659778  
     52400   0.42410115    -1.0639478     -0.63988903     0.029217434  
     52410   0.42171113    -1.0633628     -0.6416938      0.025490406  
     52420   0.41941219    -1.0645039     -0.6451336      0.02793395   
     52430   0.42052857    -1.0681347     -0.64764817     0.023774805  
     52440   0.41890398    -1.0657905     -0.64692844     0.022207295  
     52450   0.4211358     -1.0694769     -0.64838319     0.015461456  
     52460   0.41821641    -1.0681949     -0.65002033     0.029794258  
     52470   0.41713127    -1.0698618     -0.65277227     0.030141799  
     52480   0.41856649    -1.07032       -0.65179541     0.027533644  
     52490   0.4190974     -1.071984      -0.65292853     0.017848588  
     52500   0.42081341    -1.0748862     -0.65411482     0.016712344  
     52510   0.42004256    -1.074909      -0.6549084      0.021241685  
     52520   0.41955811    -1.0765108     -0.65699466     0.031241915  
     52530   0.42025344    -1.0807765     -0.6605651      0.031164607  
     52540   0.41899027    -1.0806488     -0.66170044     0.03893056   
     52550   0.42212322    -1.0873404     -0.66525935     0.020293555  
     52560   0.42102949    -1.0870537     -0.66606631     0.028050355  
     52570   0.42011981    -1.0866852     -0.66660735     0.031987164  
     52580   0.420407      -1.0885397     -0.66817477     0.027299004  
     52590   0.41859355    -1.0867197     -0.66816799     0.038139053  
     52600   0.42036833    -1.0939771     -0.67365081     0.025764113  
     52610   0.41788678    -1.0926302     -0.67478524     0.035496794  
     52620   0.41881056    -1.0936528     -0.6748841      0.033712052  
     52630   0.4187761     -1.095422      -0.67668783     0.030789674  
     52640   0.41797133    -1.0916358     -0.67370628     0.040054142  
     52650   0.41824429    -1.0956991     -0.67749665     0.024732749  
     52660   0.41843674    -1.0986182     -0.68022326     0.0227359    
     52670   0.41618948    -1.0993811     -0.68323323     0.033087539  
     52680   0.41237502    -1.1015988     -0.68926503     0.029325858  
     52690   0.41297592    -1.1031841     -0.69024952     0.028960589  
     52700   0.41117604    -1.103529      -0.69239413     0.029874045  
     52710   0.40999862    -1.1033838     -0.69342618     0.02545386   
     52720   0.41333873    -1.1056236     -0.6923262      0.023282763  
     52730   0.41428902    -1.1066874     -0.69243984     0.020615232  
     52740   0.41247253    -1.1069465     -0.69451527     0.021954727  
     52750   0.41196933    -1.1063217     -0.69439352     0.025764235  
     52760   0.41435162    -1.1104701     -0.69615995     0.025429457  
     52770   0.41324199    -1.1116146     -0.69841389     0.034364467  
     52780   0.41334691    -1.1155106     -0.70220498     0.032218861  
     52790   0.41056449    -1.1156325     -0.70510907     0.035570654  
     52800   0.40944276    -1.1182716     -0.70886979     0.028569663  
     52810   0.40799769    -1.1180292     -0.71007232     0.028009111  
     52820   0.40772943    -1.1197568     -0.71206814     0.028293672  
     52830   0.40648966    -1.1195352     -0.7130862      0.031307329  
     52840   0.40626024    -1.1215049     -0.71528526     0.020048481  
     52850   0.40379061    -1.1190798     -0.71532954     0.027452938  
     52860   0.40389838    -1.1211425     -0.71728451     0.021116364  
     52870   0.40368246    -1.1238061     -0.72016401     0.01773365   
     52880   0.40378974    -1.1243888     -0.72063946     0.024210535  
     52890   0.40785257    -1.1268826     -0.71907083     0.026405552  
     52900   0.40811924    -1.1292853     -0.72120683     0.031720933  
     52910   0.40543726    -1.1346177     -0.72922093     0.023220265  
     52920   0.40577413    -1.1357702     -0.73003668     0.01791758   
     52930   0.40556327    -1.1367684     -0.73124574     0.017629496  
     52940   0.40166326    -1.1311983     -0.72957521     0.032083193  
     52950   0.40112121    -1.1372572     -0.73617614     0.011786872  
     52960   0.40140892    -1.1379674     -0.73659866     0.013371853  
     52970   0.40371061    -1.1372423     -0.7335721      0.021397278  
     52980   0.40499688    -1.1415579     -0.73660151     0.024987288  
     52990   0.40575865    -1.1461063     -0.7403882      0.031651196  
     53000   0.406682      -1.1461658     -0.73952448     0.036351513  
     53010   0.40646673    -1.1516774     -0.74525129     0.023497362  
     53020   0.40455539    -1.1525417     -0.74802679     0.019997709  
     53030   0.40487084    -1.1545142     -0.74968386     0.023642484  
     53040   0.40190478    -1.1532158     -0.75135123     0.034833989  
     53050   0.40372929    -1.1543329     -0.75064402     0.036956475  
     53060   0.40680768    -1.1584        -0.75163301     0.023284884  
     53070   0.40619415    -1.1596333     -0.75347974     0.017368467  
     53080   0.40340535    -1.1597952     -0.75643023     0.019661522  
     53090   0.40052907    -1.1622343     -0.7617453      0.025333382  
     53100   0.40146509    -1.1668966     -0.76547167     0.025807228  
     53110   0.40142141    -1.1653539     -0.76397258     0.028663705  
     53120   0.40325345    -1.1700513     -0.76683819     0.017729267  
     53130   0.40144262    -1.1738026     -0.7724001      0.023120736  
     53140   0.39781563    -1.1745524     -0.77677656     0.034200591  
     53150   0.39960654    -1.1777138     -0.77814717     0.021754585  
     53160   0.39944548    -1.1799231     -0.78051758     0.018639904  
     53170   0.39820478    -1.178442      -0.78027707     0.028111891  
     53180   0.40117145    -1.1847854     -0.78365411     0.018063555  
     53190   0.39888107    -1.1819611     -0.78311996     0.029457748  
     53200   0.39700444    -1.1838134     -0.78684866     0.0256352    
     53210   0.39744816    -1.1867861     -0.7893777      0.019506758  
     53220   0.3902784     -1.1835843     -0.79334488     0.031911087  
     53230   0.3893824     -1.1892323     -0.79988882     0.02014912   
     53240   0.38835409    -1.1884174     -0.80010219     0.025038364  
     53250   0.3926875     -1.1926691     -0.80002089     0.012022719  
     53260   0.39193079    -1.1922663     -0.80037474     0.014600835  
     53270   0.38950286    -1.1903866     -0.80092265     0.022259265  
     53280   0.38934518    -1.1930752     -0.8037689      0.020171292  
     53290   0.38612934    -1.1927718     -0.80668103     0.023880165  
     53300   0.39061365    -1.1947898     -0.80421522     0.028277956  
     53310   0.39107926    -1.1985017     -0.80746153     0.019862403  
     53320   0.39227652    -1.2016981     -0.80946081     0.0099880125 
     53330   0.39001034    -1.2020482     -0.81207681     0.015328072  
     53340   0.38908133    -1.2053611     -0.81631865     0.017434266  
     53350   0.38916594    -1.2056524     -0.81652534     0.022541916  
     53360   0.3895187     -1.2062064     -0.8167266      0.026358222  
     53370   0.38981191    -1.2079181     -0.81814518     0.028486276  
     53380   0.38741438    -1.2083059     -0.82093024     0.027823967  
     53390   0.38669501    -1.2125468     -0.82589049     0.01336668   
     53400   0.3860239     -1.2116636     -0.82567833     0.014342056  
     53410   0.38687606    -1.2197121     -0.83287476     0.0083013507 
     53420   0.38486156    -1.2167634     -0.83194031     0.03097593   
     53430   0.38827099    -1.2241642     -0.83593207     0.024860667  
     53440   0.38688899    -1.223915      -0.83706466     0.025333071  
     53450   0.3913699     -1.2294789     -0.83814814     0.011356131  
     53460   0.38695566    -1.2248014     -0.83788438     0.01712004   
     53470   0.38550718    -1.2257123     -0.8402437      0.010113614  
     53480   0.38611288    -1.2273343     -0.84126002     0.0179508    
     53490   0.3836744     -1.2296277     -0.84599168     0.012654205  
     53500   0.38473174    -1.2319198     -0.8472265      0.011734562  
     53510   0.38303793    -1.2338336     -0.850834       0.008041559  
     53520   0.38577178    -1.2364033     -0.85067008     0.018581531  
     53530   0.38389981    -1.2377161     -0.85385464     0.020668618  
     53540   0.38468996    -1.2403995     -0.85574804     0.0162094    
     53550   0.3828883     -1.2405997     -0.85774966     0.025548109  
     53560   0.38371402    -1.2427422     -0.85906659     0.028499612  
     53570   0.38404689    -1.2485322     -0.86452373     0.018638497  
     53580   0.38273974    -1.2466953     -0.86399381     0.027598564  
     53590   0.38277511    -1.2547053     -0.87196842     0.013799598  
     53600   0.38060912    -1.2531482     -0.87257712     0.023875065  
     53610   0.38080193    -1.2549841     -0.87422022     0.028293353  
     53620   0.38129822    -1.2571263     -0.87586621     0.022346955  
     53630   0.38309065    -1.2633574     -0.8803051      0.0084420845 
     53640   0.37651654    -1.2573542     -0.88087531     0.02425195   
     53650   0.37943875    -1.2606344     -0.88123364     0.017529744  
     53660   0.37882164    -1.2621994     -0.88341562     0.019428121  
     53670   0.37698224    -1.264955      -0.88801048     0.010616168  
     53680   0.37754748    -1.2664083     -0.88889858     0.0092267316 
     53690   0.3784794     -1.26877       -0.89032849     0.016483679  
     53700   0.37632572    -1.2674057     -0.89111762     0.023988157  
     53710   0.37468433    -1.2700284     -0.8953815      0.013187036  
     53720   0.37639074    -1.2718428     -0.89548967     0.0083356989 
     53730   0.37644346    -1.2723853     -0.89597945     0.0079852481 
     53740   0.37687452    -1.2699154     -0.89307859     0.013154276  
     53750   0.37281773    -1.2685059     -0.89572549     0.018644952  
     53760   0.37274905    -1.2731125     -0.90040068     0.00026085574
     53770   0.37180868    -1.2723382     -0.90056673    -0.00093211602
     53780   0.37110528    -1.2742249     -0.90315672     0.0032900157 
     53790   0.37150373    -1.2778888     -0.90642225     0.013181516  
     53800   0.37033997    -1.2805351     -0.91023221     0.022579916  
     53810   0.37122251    -1.2809        -0.90971464     0.027752968  
     53820   0.37543386    -1.2901687     -0.91477234     0.0084158529 
     53830   0.37694583    -1.290163      -0.91325489     0.0087345941 
     53840   0.37744214    -1.2928379     -0.91543349     0.010655302  
     53850   0.37455584    -1.2948814     -0.92036304     0.028430596  
     53860   0.37210186    -1.2988751     -0.92681045     0.026475454  
     53870   0.37569341    -1.3029955     -0.92733962     0.017608724  
     53880   0.37273668    -1.302677      -0.92997759     0.025694636  
     53890   0.37252484    -1.3043493     -0.93186169     0.024980741  
     53900   0.37460839    -1.305498      -0.93092709     0.023806749  
     53910   0.37411562    -1.3080994     -0.93402121     0.021966439  
     53920   0.37171922    -1.3098157     -0.93813363     0.011281832  
     53930   0.36985754    -1.3064221     -0.93660151     0.012852189  
     53940   0.372898      -1.3088125     -0.93595175     0.011704129  
     53950   0.37534487    -1.312608      -0.93730065     0.0051923805 
     53960   0.37027379    -1.3123351     -0.94209831     0.014172526  
     53970   0.37146687    -1.31821       -0.94678031     0.0069706912 
     53980   0.37200008    -1.3211999     -0.94923698     0.010766865  
     53990   0.37022404    -1.32103       -0.95084296     0.018894406  
     54000   0.37036196    -1.3230576     -0.95273267     0.017346723  
     54010   0.37245619    -1.3277108     -0.95529186     0.010023942  
     54020   0.3702457     -1.330787      -0.96057831     0.015064448  
     54030   0.36877012    -1.3325529     -0.96381968     0.024730587  
     54040   0.37039436    -1.3365649     -0.96620762     0.021166908  
     54050   0.36934751    -1.3411232     -0.97181267     0.0089690808 
     54060   0.36990682    -1.3410394     -0.97116956     0.013358905  
     54070   0.36707631    -1.3416619     -0.97462233     0.010278376  
     54080   0.3651128     -1.3443507     -0.97927443     0.0099284256 
     54090   0.36356205    -1.3417506     -0.97822491     0.016949798  
     54100   0.36363874    -1.3445784     -0.98097602     0.011608812  
     54110   0.36515066    -1.3479225     -0.98280831     0.0069644008 
     54120   0.36389931    -1.349809      -0.98594613     0.008310311  
     54130   0.36191078    -1.3502575     -0.98838295     0.019210078  
     54140   0.36346943    -1.3561379     -0.99270485     0.016321016  
     54150   0.36627571    -1.3580935     -0.99185437     0.016517174  
     54160   0.36563726    -1.3556707     -0.99006998     0.022108616  
     54170   0.36618167    -1.3606976     -0.99455255     0.01646432   
     54180   0.36533905    -1.3613816     -0.99607907     0.022889632  
     54190   0.36484304    -1.365748      -1.0009415      0.015511591  
     54200   0.36261902    -1.3694395     -1.0068567      0.0051775992 
     54210   0.36337106    -1.3716573     -1.0083226      0.0075489221 
     54220   0.36068854    -1.3671243     -1.0064719      0.02270702   
     54230   0.36020744    -1.3716569     -1.0114855      0.0065764732 
     54240   0.36244187    -1.3740376     -1.011632       0.00078613776
     54250   0.36040161    -1.3761083     -1.0157427      0.009681299  
     54260   0.35984468    -1.3833379     -1.0235292      0.0086284552 
     54270   0.354845      -1.3841169     -1.0293074      0.015368858  
     54280   0.353817      -1.388364      -1.0345824      0.019532021  
     54290   0.35370263    -1.386676      -1.0330087      0.025051763  
     54300   0.35595033    -1.3895995     -1.0336848      0.012869075  
     54310   0.35652753    -1.3932981     -1.0368062     -0.0019603249 
     54320   0.35347937    -1.3953198     -1.0418758      0.0018193443 
     54330   0.35474644    -1.3991649     -1.0444539      0.013885504  
     54340   0.35728327    -1.4035706     -1.0463231      0.020160558  
     54350   0.3593312     -1.4067191     -1.0474238      0.023822176  
     54360   0.35722958    -1.4065738     -1.0493799      0.025130287  
     54370   0.35434375    -1.4080353     -1.053727       0.012469241  
     54380   0.34996057    -1.4081361     -1.0582105      0.0097054547 
     54390   0.35161815    -1.4130233     -1.0614403      0.00035366178
     54400   0.35188074    -1.4115504     -1.0597049      0.021763447  
     54410   0.35026799    -1.4146318     -1.0643988      0.018521276  
     54420   0.35031131    -1.4168542     -1.066578       0.01226851   
     54430   0.35206045    -1.4178936     -1.0658684      0.009337889  
     54440   0.3530758     -1.4202792     -1.0672387      0.0019754394 
     54450   0.35149133    -1.4225042     -1.071048       0.0013298821 
     54460   0.35097551    -1.4272186     -1.0762782     -0.0018721186 
     54470   0.35149425    -1.4299571     -1.078498       0.0033128315 
     54480   0.35230276    -1.4332238     -1.0809562      0.0046723423 
     54490   0.35447505    -1.4353136     -1.080874       0.014891262  
     54500   0.35063911    -1.4358917     -1.0852877      0.018299154  
     54510   0.34678896    -1.4375208     -1.0907665      0.01404967   
     54520   0.34705589    -1.4405322     -1.0935111      0.00040140162
     54530   0.34912675    -1.4418317     -1.0927399      0.00070223377
     54540   0.35109145    -1.4429129     -1.0918565      0.0070389318 
     54550   0.35181272    -1.4440684     -1.0922909      0.017735326  
     54560   0.34892803    -1.4502915     -1.1013983      0.0035674547 
     54570   0.34430904    -1.4498351     -1.1055605      0.009935684  
     54580   0.350216      -1.4567321     -1.1065511      0.0043004563 
     54590   0.34888223    -1.4570089     -1.1081616      0.014327473  
     54600   0.34744135    -1.4625794     -1.1151728      0.014777709  
     54610   0.3426774     -1.4594631     -1.11682        0.024856437  
     54620   0.34872096    -1.4705076     -1.1218215      0.0032481375 
     54630   0.34363628    -1.4658552     -1.1222533      0.013259616  
     54640   0.34554292    -1.468706      -1.1231977      0.008731404  
     54650   0.34497894    -1.4740769     -1.1291324      0.00023361668
     54660   0.34468055    -1.4757367     -1.1310906      0.0026059387 
     54670   0.34183267    -1.4739166     -1.1321181      0.017900533  
     54680   0.34200555    -1.4757407     -1.1337693      0.017594952  
     54690   0.34223481    -1.4825319     -1.1403313      0.0010548671 
     54700   0.34600641    -1.4873479     -1.141376      -0.0050033379 
     54710   0.33874237    -1.4828522     -1.1441437      0.0073800121 
     54720   0.34017193    -1.488716      -1.1485781     -0.0022346505 
     54730   0.3421973     -1.491415      -1.1492519      0.0028139095 
     54740   0.34260134    -1.4947731     -1.152206       0.00079212107
     54750   0.34299737    -1.4992566     -1.1562935     -0.0044389239 
     54760   0.33975135    -1.4983331     -1.1586157      0.0093811814 
     54770   0.3388069     -1.5038015     -1.1650285      0.010988795  
     54780   0.33683559    -1.5031896     -1.1663877      0.019473417  
     54790   0.3370342     -1.504531      -1.1675305      0.015155631  
     54800   0.33693271    -1.5056167     -1.1687177      0.0068066721 
     54810   0.3370728     -1.5093033     -1.1722643     -0.0020515834 
     54820   0.33420455    -1.5094583     -1.1752872      0.003831067  
     54830   0.33473617    -1.5159836     -1.1812809      0.0030344573 
     54840   0.33598724    -1.5181149     -1.1821612      0.011923022  
     54850   0.3382173     -1.5241441     -1.1859606      0.0044119619 
     54860   0.33976286    -1.5267549     -1.1870261      0.00016044627
     54870   0.33713596    -1.5312644     -1.1941622      6.5069142e-05
     54880   0.33510529    -1.5311711     -1.1960993      0.017657269  
     54890   0.33860831    -1.5370922     -1.1985177      0.018163364  
     54900   0.34189253    -1.5458718     -1.2040134      0.0067087947 
     54910   0.34154415    -1.5468998     -1.2053898      0.0047367218 
     54920   0.33709263    -1.5449306     -1.2078717      0.018730096  
     54930   0.33949178    -1.5522069     -1.2127491      0.0024147973 
     54940   0.33999576    -1.5560689     -1.2161071     -0.0053434404 
     54950   0.33545367    -1.5542433     -1.2188232      0.010457967  
     54960   0.33605722    -1.5575583     -1.2215347      0.0049371235 
     54970   0.33433287    -1.5592657     -1.2249663     -0.0036557749 
     54980   0.33425719    -1.5588125     -1.2245887     -0.0080227464 
     54990   0.33361918    -1.5608791     -1.2272933     -0.0039467497 
     55000   0.33066968    -1.5641629     -1.2335263      0.0056115795 
     55010   0.33408487    -1.5723505     -1.2382991      0.0041204683 
     55020   0.3342187     -1.5752576     -1.2410723      0.00099098566
     55030   0.33688272    -1.5760969     -1.2392479      0.0016589399 
     55040   0.33410754    -1.5786281     -1.244554       0.0041129159 
     55050   0.33280092    -1.5833242     -1.2505566     -0.0035203962 
     55060   0.33033392    -1.5857087     -1.2554079      0.00052339277
     55070   0.33166786    -1.5907867     -1.2591521      0.0065159416 
     55080   0.33787043    -1.5990523     -1.2612157      0.004027726  
     55090   0.33879393    -1.6021643     -1.2634042      0.0098850719 
     55100   0.33582802    -1.6031917     -1.2673972      0.010003733  
     55110   0.33144497    -1.6050615     -1.2736497      0.0020737229 
     55120   0.33239324    -1.6057179     -1.2733579      0.0026769494 
     55130   0.33484544    -1.6086789     -1.273867      -0.0038449039 
     55140   0.33302113    -1.6101192     -1.2771313      0.0061989982 
     55150   0.32903019    -1.6097248     -1.2807275      0.021671086  
     55160   0.32875765    -1.6156421     -1.2869174      0.010304088  
     55170   0.32880977    -1.6188253     -1.2900485      0.0041781917 
     55180   0.33067174    -1.6225979     -1.2919592     -0.0034486447 
     55190   0.32842593    -1.6216129     -1.2932198      0.012031064  
     55200   0.32709194    -1.6243401     -1.2972809      0.0075431247 
     55210   0.32457838    -1.6259881     -1.3014422     -0.004498579  
     55220   0.32588781    -1.6314477     -1.3055925     -0.0029942284 
     55230   0.32255369    -1.6289355     -1.306414       0.018576053  
     55240   0.32690536    -1.6362054     -1.3093328      0.0046856527 
     55250   0.32704778    -1.6408347     -1.3138196     -0.0058758114 
     55260   0.3240939     -1.6417544     -1.3176929     -0.00027314602
     55270   0.32721624    -1.6459732     -1.3187897      0.0031268964 
     55280   0.32687736    -1.6489131     -1.3220684      0.0075289523 
     55290   0.32733397    -1.6518828     -1.3245816      0.011229694  
     55300   0.32987657    -1.6572751     -1.3274315      0.0090691549 
     55310   0.32592544    -1.6617895     -1.3358966     -0.00082842708
     55320   0.32185436    -1.6593718     -1.3375496     -0.00037640312
     55330   0.3215892     -1.6633299     -1.3417729     -0.0076754279 
     55340   0.3243023     -1.669557      -1.3452871     -0.0072771897 
     55350   0.32483172    -1.6728587     -1.3480594      0.0016758076 
     55360   0.32270741    -1.6750841     -1.352409       0.0060373957 
     55370   0.3202216     -1.6789138     -1.3587242      0.0096801181 
     55380   0.3250556     -1.6845719     -1.3595488      0.010124003  
     55390   0.32493143    -1.6888132     -1.3639143      0.0065988463 
     55400   0.32635022    -1.6921396     -1.365822       0.0066418474 
     55410   0.32551532    -1.6963374     -1.3708546     -0.002293912  
     55420   0.3227453     -1.6949647     -1.3722517      0.0085238912 
     55430   0.32448158    -1.700362      -1.3759129      0.0073792297 
     55440   0.32443409    -1.702744      -1.3783423      0.0089285277 
     55450   0.32261994    -1.7024884     -1.3799007      0.010608697  
     55460   0.3224149     -1.7063014     -1.3839188      0.0037254559 
     55470   0.31887932    -1.7061713     -1.3873239      0.00049913327
     55480   0.31906655    -1.7133873     -1.3943526     -0.012125764  
     55490   0.3193118     -1.7196423     -1.4003624     -0.012225528  
     55500   0.31872749    -1.7255109     -1.4068153     -0.0086877722 
     55510   0.32015088    -1.7270524     -1.4069335     -0.0010507535 
     55520   0.31869227    -1.7316837     -1.4130233      0.0040086939 
     55530   0.31896684    -1.7357013     -1.4167664      0.012241996  
     55540   0.31925476    -1.7423744     -1.4231516      0.0029155208 
     55550   0.31786021    -1.7386953     -1.4208668      0.015493431  
     55560   0.32020211    -1.7462176     -1.4260476     -0.00083712126
     55570   0.32031994    -1.7477233     -1.4274354     -0.0111758    
     55580   0.31636162    -1.7488051     -1.4324751     -0.0064625355 
     55590   0.31595973    -1.7548707     -1.4389426      0.0010538452 
     55600   0.31525741    -1.7581285     -1.4429026      0.02332147   
     55610   0.32039016    -1.7672903     -1.4469322      0.01755844   
     55620   0.32109622    -1.7734556     -1.4523915     -0.00065294294
     55630   0.32029375    -1.7735699     -1.4533082      0.0028193932 
     55640   0.32016572    -1.7748767     -1.454743       0.0072851118 
     55650   0.32050853    -1.7808945     -1.460418      -0.0005048122 
     55660   0.31454861    -1.7801662     -1.4656491      0.001178496  
     55670   0.31412064    -1.7838177     -1.4697284     -0.0081305466 
     55680   0.31337039    -1.7892423     -1.4759032     -0.012030614  
     55690   0.31498448    -1.7905796     -1.4756266     -0.0053389621 
     55700   0.3171126     -1.7970521     -1.4799712      0.0030615008 
     55710   0.31294848    -1.7976345     -1.4847173      0.020667327  
     55720   0.31150377    -1.8020877     -1.4906151      0.017012549  
     55730   0.31031268    -1.8061876     -1.495906       0.013075419  
     55740   0.31384582    -1.8129709     -1.4991565     -0.0045291919 
     55750   0.31501213    -1.8155385     -1.5005579     -0.001655887  
     55760   0.31408737    -1.8176498     -1.5035938      0.0097509149 
     55770   0.31301371    -1.8228898     -1.5099074      0.0094076418 
     55780   0.31190882    -1.8234198     -1.5115421      0.014962037  
     55790   0.31608795    -1.8319987     -1.5159423      0.0016244783 
     55800   0.31304229    -1.8357542     -1.5227432     -0.0012962842 
     55810   0.31256347    -1.8354589     -1.5229267      0.0098943376 
     55820   0.3093356     -1.8388715     -1.5295668      0.002808839  
     55830   0.30651581    -1.8398997     -1.5334145      0.00071645093
     55840   0.31001748    -1.8440004     -1.534014       0.0011176716 
     55850   0.30783224    -1.845072      -1.5372706     -0.0017183264 
     55860   0.30754245    -1.8502821     -1.5427704     -0.011912019  
     55870   0.30596535    -1.8547376     -1.5488028     -0.0061342157 
     55880   0.30367517    -1.8598466     -1.5562018     -0.0086301262 
     55890   0.30206615    -1.8617918     -1.5597559     -0.0043650313 
     55900   0.30295248    -1.8609005     -1.5579784      0.0083254832 
     55910   0.30819294    -1.8725976     -1.5644355     -0.011425273  
     55920   0.305728      -1.8741881     -1.5684907     -0.0086273338 
     55930   0.30297236    -1.8747829     -1.5718409      0.0020260772 
     55940   0.30359595    -1.8788439     -1.5752784      0.0083021954 
     55950   0.30158858    -1.8841815     -1.5826231      0.012472832  
     55960   0.29995653    -1.8878226     -1.587896       0.0019578503 
     55970   0.30283027    -1.8890636     -1.5862637     -0.0058664167 
     55980   0.302676      -1.8916497     -1.589004      -0.0078819225 
     55990   0.30456149    -1.8978006     -1.5932696     -0.0059963157 
     56000   0.30498221    -1.8994256     -1.5944739      0.0027825489 
     56010   0.30116969    -1.9020256     -1.6008861      0.0069345715 
     56020   0.30268263    -1.9094724     -1.6068201      0.0013661804 
     56030   0.30288156    -1.910813      -1.6079617      0.0051963656 
     56040   0.30395877    -1.9155095     -1.6115811      0.0028607477 
     56050   0.29984948    -1.9201127     -1.6202932      0.003088551  
     56060   0.30057736    -1.9256399     -1.6250926     -0.0036077272 
     56070   0.30344483    -1.9293323     -1.6259178     -0.015675263  
     56080   0.30166243    -1.9277146     -1.6260823      0.0010876516 
     56090   0.30648592    -1.9389996     -1.6325443     -0.010080121  
     56100   0.30572542    -1.9423022     -1.6366073     -0.00054192068
     56110   0.30378679    -1.9460338     -1.6422774      0.0086455996 
     56120   0.30625389    -1.9528673     -1.646644       0.0075906193 
     56130   0.30089695    -1.9542753     -1.6534084      0.0076492331 
     56140   0.30080203    -1.9591373     -1.6583654     -0.0015858403 
     56150   0.30145113    -1.9605577     -1.6591367     -0.0053535096 
     56160   0.29798052    -1.9652408     -1.6672901     -0.005955549  
     56170   0.29779975    -1.9668598     -1.6690898      0.0075843235 
     56180   0.30093988    -1.9724578     -1.671548       0.001295252  
     56190   0.2981675     -1.977754      -1.6796164      0.0043013262 
     56200   0.29716643    -1.9820793     -1.6849426      0.0060926839 
     56210   0.29983776    -1.9831202     -1.6833124      0.011385518  
     56220   0.29814001    -1.9882804     -1.6901702     -0.0078944993 
     56230   0.29439518    -1.9898763     -1.6955105     -0.010914727  
     56240   0.29561666    -1.9942393     -1.6986522     -0.013156161  
     56250   0.29638466    -1.9968024     -1.7004473     -0.0069471293 
     56260   0.29497256    -1.999685      -1.704742      -0.0048464337 
     56270   0.29426575    -2.0052479     -1.7110116     -0.0097699721 
     56280   0.291622      -2.0060081     -1.7144153      0.0033796258 
     56290   0.29214421    -2.0088502     -1.7167352      0.013195763  
     56300   0.29169102    -2.0182135     -1.7265516      0.0067156537 
     56310   0.29301106    -2.02211       -1.7291283      0.0030466851 
     56320   0.29393852    -2.0244387     -1.7305296      0.0075637668 
     56330   0.29517299    -2.0300093     -1.7348658     -0.0026145696 
     56340   0.29235364    -2.0303471     -1.7380227     -0.00086241413
     56350   0.29008067    -2.0351896     -1.7451379     -0.0095052372 
     56360   0.2904242     -2.0380864     -1.7476913     -0.0032724971 
     56370   0.28916848    -2.0395876     -1.750448       0.0025430443 
     56380   0.2905631     -2.0466279     -1.7560939     -0.0094747602 
     56390   0.2893829     -2.0499151     -1.7605612     -0.0051830091 
     56400   0.29109029    -2.0586411     -1.7675799     -0.0044388922 
     56410   0.29203532    -2.0624194     -1.7704133      0.00019463507
     56420   0.29001301    -2.0659732     -1.7759892      0.00020828174
     56430   0.2866571     -2.066374      -1.7797455      0.013011759  
     56440   0.28621051    -2.0718221     -1.7856402      0.0051799617 
     56450   0.2885307     -2.0789135     -1.7904117     -0.0060239566 
     56460   0.28841532    -2.0795711     -1.7911846     -0.010587698  
     56470   0.28778797    -2.0843586     -1.7965994     -0.013623803  
     56480   0.28562544    -2.0871421     -1.8015452     -0.0025082526 
     56490   0.28538047    -2.0880721     -1.8027202      0.0065913262 
     56500   0.28538936    -2.0944405     -1.8090797      0.0015535684 
     56510   0.28517113    -2.0951259     -1.8099833      0.0103143    
     56520   0.28774311    -2.1032212     -1.8155068     -0.0013711981 
     56530   0.28659185    -2.1056108     -1.8190476     -0.0054705184 
     56540   0.28587009    -2.1115693     -1.8257278     -0.014905839  
     56550   0.28594436    -2.1122614     -1.8263457     -0.0018694839 
     56560   0.28773373    -2.118882      -1.8311771      0.0032386894 
     56570   0.28476795    -2.12292       -1.8381805     -0.0020470777 
     56580   0.28969785    -2.1315257     -1.8418568     -0.0047253927 
     56590   0.28755386    -2.1349709     -1.8474458      0.0010927714 
     56600   0.28493243    -2.1353249     -1.850421       0.0013138712 
     56610   0.28552886    -2.1398489     -1.8543486     -0.0072274229 
     56620   0.28244386    -2.1416404     -1.8592247     -0.0046483925 
     56630   0.28036304    -2.1441729     -1.8638379      0.0004301499 
     56640   0.28192622    -2.1487885     -1.8668905     -0.0099353678 
     56650   0.28081852    -2.1525906     -1.8718002     -0.012056329  
     56660   0.27729296    -2.1552153     -1.87795       -0.0056392597 
     56670   0.27828628    -2.1616007     -1.8833422     -0.011071841  
     56680   0.27646756    -2.1623745     -1.8859346      0.00086207573
     56690   0.2756123     -2.1685419     -1.8929572     -0.0037224607 
     56700   0.27622144    -2.1705114     -1.8943176      0.0014026925 
     56710   0.27795734    -2.1762904     -1.8983609     -0.0052694237 
     56720   0.27811057    -2.1809237     -1.902841      -0.0015798736 
     56730   0.27296123    -2.1809031     -1.9079692      0.0025961936 
     56740   0.27664817    -2.1868186     -1.9101981     -0.00046250151
     56750   0.27480378    -2.1906279     -1.9158516     -0.00079848023
     56760   0.27918782    -2.197696      -1.9185361     -0.011193706  
     56770   0.27895481    -2.2038568     -1.9249298     -0.015243436  
     56780   0.27843566    -2.2032641     -1.9248563     -0.0037568591 
     56790   0.276169      -2.2064339     -1.9302926      0.0015398213 
     56800   0.27803645    -2.21617       -1.9381614     -0.014917795  
     56810   0.27902491    -2.2203221     -1.9413251     -0.013319061  
     56820   0.27673363    -2.2199565     -1.9432505     -0.0027638747 
     56830   0.2786517     -2.2255057     -1.9468819     -0.0081163166 
     56840   0.27835708    -2.2291165     -1.9507873     -0.0085559071 
     56850   0.27573693    -2.2342686     -1.9585593     -0.0058003251 
     56860   0.27341307    -2.2371246     -1.9637388      0.0024756649 
     56870   0.27563246    -2.2418735     -1.9662686     -0.002267502  
     56880   0.27233556    -2.2432391     -1.9709308     -0.0050675359 
     56890   0.27324222    -2.2462096     -1.9729947     -0.00034564081
     56900   0.27927692    -2.2546032     -1.9753542     -0.0052088163 
     56910   0.27529573    -2.255231      -1.9799628      0.005699316  
     56920   0.27306018    -2.2662698     -1.9932369     -0.0029407306 
     56930   0.27251235    -2.2699318     -1.9974467     -0.0021589071 
     56940   0.27223182    -2.2706729     -1.9984683      0.0089704196 
     56950   0.27399842    -2.2762081     -2.0022371      0.001822019  
     56960   0.27332671    -2.2791098     -2.0058104     -0.0090435922 
     56970   0.2686639     -2.2814472     -2.0128102     -0.013844758  
     56980   0.26753083    -2.2848712     -2.0173671     -0.013825107  
     56990   0.27302025    -2.2933852     -2.0203923     -0.020213959  
     57000   0.27234598    -2.294331      -2.0220122     -0.0013632405 
     57010   0.27360044    -2.3026749     -2.0291018     -0.0077529006 
     57020   0.27130507    -2.3057923     -2.0345143      0.00050402501
     57030   0.2680442     -2.3061685     -2.0381511      0.010757116  
     57040   0.27055302    -2.3159829     -2.0454569      0.0021052517 
     57050   0.26812021    -2.31664       -2.0485466      0.0064809896 
     57060   0.27023293    -2.3215978     -2.0513919     -0.0014487462 
     57070   0.26930384    -2.3252783     -2.0560014     -0.0083583202 
     57080   0.26443017    -2.3282782     -2.0638745     -0.011720592  
     57090   0.26138761    -2.3285445     -2.067183      -0.0047632374 
     57100   0.26302661    -2.333054      -2.0700537     -0.0048218082 
     57110   0.25986564    -2.3348246     -2.0749849     -0.0031696526 
     57120   0.2630894     -2.3410831     -2.07802       -0.0071643311 
     57130   0.26216847    -2.3459643     -2.083822      -0.0048358724 
     57140   0.26135873    -2.3494388     -2.0881062      0.0030613338 
     57150   0.26278593    -2.3555673     -2.0928076     -0.00053370263
     57160   0.26501558    -2.3580171     -2.093028      -0.0037299441 
     57170   0.26375626    -2.3626545     -2.0989247     -0.0057867268 
     57180   0.26409328    -2.3699427     -2.1058758     -0.013603093  
     57190   0.26506809    -2.3705732     -2.1055316     -0.010780249  
     57200   0.26394413    -2.374338      -2.1104202     -0.011183183  
     57210   0.26428109    -2.3792472     -2.1149926     -0.0070069505 
     57220   0.26094797    -2.3808291     -2.1199072      0.00035751706
     57230   0.26185899    -2.3870915     -2.1252587     -0.0047280472 
     57240   0.26517533    -2.3946191     -2.1294702     -0.012697478  
     57250   0.26623766    -2.3953658     -2.1291547     -0.0066972866 
     57260   0.26308106    -2.3981452     -2.1350904     -0.0032566121 
     57270   0.26368783    -2.403672      -2.1400106     -0.004900826  
     57280   0.26200761    -2.4114957     -2.1495143     -0.011254102  
     57290   0.26113557    -2.4120268     -2.1509173     -0.0059284961 
     57300   0.25686242    -2.4163797     -2.1595429     -0.01163283   
     57310   0.25904611    -2.4196749     -2.1606547     -0.0096308842 
     57320   0.25844445    -2.4210223     -2.1626037      0.00010784864
     57330   0.25695599    -2.4246704     -2.1677401     -0.0020051944 
     57340   0.25332042    -2.4246032     -2.1713081      0.0032095077 
     57350   0.25396289    -2.4315921     -2.1776546     -0.011532804  
     57360   0.25466067    -2.4358818     -2.1812466     -0.01177118   
     57370   0.25304112    -2.4400263     -2.1870105     -0.0080548005 
     57380   0.25483125    -2.444676      -2.1898702     -0.0011601955 
     57390   0.25180447    -2.4451312     -2.1933519      0.011637747  
     57400   0.25449717    -2.4507562     -2.1962845      0.0059154518 
     57410   0.25713516    -2.4561359     -2.1990264     -0.0011191893 
     57420   0.25258836    -2.4582903     -2.2057272      0.0039562894 
     57430   0.25154146    -2.4609875     -2.2094712      0.0028171053 
     57440   0.25127498    -2.464641      -2.2133912     -0.0058101207 
     57450   0.25086701    -2.4675436     -2.2167016     -0.012317878  
     57460   0.2539049     -2.4736755     -2.219796      -0.014891543  
     57470   0.25698241    -2.4804886     -2.2235319     -0.0068098602 
     57480   0.2521521     -2.4817467     -2.2296198      0.0094542868 
     57490   0.25325054    -2.4882066     -2.2349814      0.0011311176 
     57500   0.25496404    -2.4948695     -2.239931      -0.0086435909 
     57510   0.25309908    -2.4984009     -2.2453271     -0.012208122  
     57520   0.25014812    -2.4974394     -2.2473163     -0.0011560153 
     57530   0.25117337    -2.5030989     -2.2519506     -0.0044252947 
     57540   0.25125255    -2.5086602     -2.2574328     -0.0054716314 
     57550   0.25276279    -2.5118516     -2.2591141     -0.005147282  
     57560   0.25198964    -2.5163315     -2.264367      -0.0048059361 
     57570   0.24976921    -2.5178827     -2.2681384      0.0038216999 
     57580   0.25073455    -2.5250637     -2.2743542     -0.0011306614 
     57590   0.24885622    -2.5275426     -2.2787113      0.0057273471 
     57600   0.24736722    -2.5299373     -2.2825948      0.0084359113 
     57610   0.24793856    -2.5348403     -2.2869265      0.0061553058 
     57620   0.24758881    -2.5396202     -2.2920562     -0.00056460699
     57630   0.24826063    -2.5416995     -2.2934637      0.0047314176 
     57640   0.245074      -2.5446618     -2.2996123      0.0021520593 
     57650   0.24652263    -2.5499567     -2.3034587     -0.0081321443 
     57660   0.24434044    -2.5518015     -2.3074854     -0.0026261665 
     57670   0.24559038    -2.5542686     -2.3087028     -0.0081666183 
     57680   0.24335455    -2.5567759     -2.3134457     -0.0064568767 
     57690   0.24274359    -2.5600456     -2.3173263     -0.010173536  
     57700   0.24229103    -2.5636959     -2.3214291     -0.0066564001 
     57710   0.24464933    -2.5706118     -2.3259869     -0.003565845  
     57720   0.24426664    -2.5739011     -2.3296589     -0.0031090449 
     57730   0.24225168    -2.5759788     -2.3337513     -0.0048018682 
     57740   0.24421026    -2.5835292     -2.3393434     -0.010276644  
     57750   0.24287724    -2.585993      -2.34314       -0.0059749673 
     57760   0.24151618    -2.5915561     -2.3500641     -0.013530764  
     57770   0.24108886    -2.5944158     -2.353351      -0.0077775589 
     57780   0.24259089    -2.5974517     -2.3548851      0.0083877184 
     57790   0.24040292    -2.6038712     -2.3634924      0.0014377953 
     57800   0.23916433    -2.6051962     -2.3660558     -0.0057230981 
     57810   0.24058604    -2.6080117     -2.3674497     -0.0057244311 
     57820   0.23940989    -2.6095594     -2.3701734     -0.0052832733 
     57830   0.23746911    -2.6139319     -2.3764865     -0.0077699193 
     57840   0.23873933    -2.6199603     -2.3812448     -0.010133155  
     57850   0.23953847    -2.6229298     -2.3834153     -0.0016205437 
     57860   0.23703019    -2.6255353     -2.3885288      0.0021737317 
     57870   0.23513101    -2.6279529     -2.3928454      0.00084676771
     57880   0.23434308    -2.63279       -2.3984704      0.0016448558 
     57890   0.2387881     -2.6391503     -2.4003861     -0.0066985154 
     57900   0.23683706    -2.6398674     -2.403054       0.001966003  
     57910   0.23363756    -2.6435776     -2.4099634      0.002492599  
     57920   0.23529152    -2.6487867     -2.4135187     -0.00062975755
     57930   0.23272842    -2.6492439     -2.4165388      0.0040726704 
     57940   0.23320654    -2.6546076     -2.4214244     -0.0005451498 
     57950   0.22853059    -2.6541051     -2.4255974      0.0059533072 
     57960   0.2327373     -2.6589522     -2.4262382     -0.013882942  
     57970   0.2299165     -2.6594422     -2.4295486     -0.017484313  
     57980   0.22661293    -2.6604943     -2.4339041     -0.010861028  
     57990   0.22494172    -2.6645103     -2.4395911     -0.012034446  
     58000   0.22737366    -2.6710061     -2.4436552     -0.015955253  
     58010   0.22698694    -2.6721203     -2.4451561     -0.012465133  
     58020   0.22719945    -2.6760665     -2.4488897     -0.0095990412 
     58030   0.22401935    -2.6774957     -2.4534988      0.0059020244 
     58040   0.22869543    -2.6858953     -2.4572228      0.0034817769 
     58050   0.22861518    -2.6922767     -2.4636844      0.0039848181 
     58060   0.22597571    -2.6908155     -2.4648624      0.012679736  
     58070   0.22650615    -2.6953593     -2.4688758      0.0023739398 
     58080   0.22484873    -2.6971991     -2.4723728      0.001231132  
     58090   0.22568608    -2.701817      -2.4761535     -0.003835842  
     58100   0.2227382     -2.7009716     -2.4782557      0.0019387811 
     58110   0.22250186    -2.7073915     -2.4849119     -0.0091027218 
     58120   0.22339964    -2.7117631     -2.4883858     -0.011900456  
     58130   0.22294626    -2.7141961     -2.4912722     -0.0085908315 
     58140   0.22348738    -2.7183833     -2.4949182     -0.0057208123 
     58150   0.22180091    -2.7198198     -2.4980411      0.0040525827 
     58160   0.22472131    -2.7271278     -2.5024289     -0.003068549  
     58170   0.22200635    -2.7284436     -2.5064594      0.0034423639 
     58180   0.22192844    -2.7325669     -2.5106607      0.0025287165 
     58190   0.22316278    -2.7354089     -2.5122685      0.0052858503 
     58200   0.22289364    -2.7399282     -2.5170568      0.0015922677 
     58210   0.22324553    -2.7404187     -2.5171955      0.0090373779 
     58220   0.22055653    -2.7442479     -2.5237135      0.0014026152 
     58230   0.22004898    -2.7457586     -2.5257316     -0.00076306536
     58240   0.21945013    -2.7476739     -2.5282457     -0.0020113416 
     58250   0.21878087    -2.7527191     -2.5339601     -0.00035900597
     58260   0.21836904    -2.7550489     -2.5367017      0.00028170502
     58270   0.21717587    -2.7573046     -2.5401504     -0.0081134185 
     58280   0.21557929    -2.7599443     -2.5443866     -0.010029061  
     58290   0.21134034    -2.7614814     -2.5501622     -0.00042877095
     58300   0.21166296    -2.762013      -2.5503712      0.0053244374 
     58310   0.21317981    -2.767891      -2.5547326      0.00028249342
     58320   0.21261195    -2.7708613     -2.5582706      0.0014673821 
     58330   0.21176409    -2.7730415     -2.5612986      0.0068640883 
     58340   0.21085158    -2.7742496     -2.5634191      0.0033111661 
     58350   0.20911614    -2.7760915     -2.5669963      0.00047204202
     58360   0.20978733    -2.7783551     -2.5685888     -0.0074012356 
     58370   0.21081406    -2.7809943     -2.5702013     -0.018515284  
     58380   0.21216569    -2.7865476     -2.5744032     -0.025153179  
     58390   0.211707      -2.7902497     -2.5785639     -0.025374417  
     58400   0.21165212    -2.7936381     -2.5820072     -0.017760285  
     58410   0.21176537    -2.7972313     -2.5854871     -0.0021694029 
     58420   0.2083992     -2.7960908     -2.5877124      0.017408685  
     58430   0.2081828     -2.7995327     -2.5913707      0.017387135  
     58440   0.20878149    -2.805211      -2.5964504      0.0073057382 
     58450   0.20977911    -2.8064768     -2.5967187      0.0083762701 
     58460   0.2113759     -2.8117225     -2.6003678     -0.0058995566 
     58470   0.20700928    -2.8108597     -2.6038711     -0.00034604568
     58480   0.20669479    -2.8140052     -2.6073311     -0.0009075875 
     58490   0.20692932    -2.8197013     -2.6127927     -0.007078514  
     58500   0.20704531    -2.8211584     -2.6141338     -0.0038913768 
     58510   0.20484867    -2.8202288     -2.6154006     -0.00083131051
     58520   0.20564243    -2.8238027     -2.6181808     -0.0055668505 
     58530   0.20585125    -2.8291974     -2.6233667     -0.010062784  
     58540   0.20317866    -2.8263718     -2.6232135      0.00096738916
     58550   0.20364591    -2.8344088     -2.6307832     -0.0070672164 
     58560   0.20417139    -2.8368169     -2.6326659     -0.0037139893 
     58570   0.20298157    -2.8389236     -2.6359623      0.0024800267 
     58580   0.20210142    -2.8440834     -2.6420022      0.0049381458 
     58590   0.20252194    -2.8463405     -2.6438388      0.010155451  
     58600   0.20228811    -2.8472519     -2.644984       0.012129177  
     58610   0.20086819    -2.8504363     -2.6495882      0.0040039543 
     58620   0.2017724     -2.8523357     -2.6505835     -0.0081171735 
     58630   0.20050187    -2.8551174     -2.6546356     -0.016702964  
     58640   0.19754469    -2.8551092     -2.6575842     -0.0090828907 
     58650   0.1964001     -2.8574054     -2.661025       0.002604122  
     58660   0.19810131    -2.8620229     -2.6639414     -0.0012052868 
     58670   0.19869474    -2.8631747     -2.6644998     -0.0081217957 
     58680   0.19864796    -2.8669718     -2.6683437     -0.016014642  
     58690   0.19671038    -2.8686342     -2.6719435     -0.0086015597 
     58700   0.19685286    -2.8723823     -2.6755491     -0.0045633874 
     58710   0.19751536    -2.8753397     -2.6778441     -0.0051002336 
     58720   0.19741798    -2.878573      -2.6811748     -0.0093523367 
     58730   0.19624641    -2.8789573     -2.6827305     -0.0027936569 
     58740   0.19394185    -2.8806583     -2.6867358      0.0065024689 
     58750   0.19551672    -2.8834257     -2.6879285      0.010230279  
     58760   0.19236119    -2.8872504     -2.6949085      0.0094325276 
     58770   0.1909185     -2.8874466     -2.6965472      0.010898451  
     58780   0.19055903    -2.8906576     -2.7001176     -0.0037932732 
     58790   0.19254927    -2.8912941     -2.6987641     -0.0066658812 
     58800   0.1907417     -2.8917045     -2.7009819     -0.0037584628 
     58810   0.18845353    -2.8952233     -2.7067886     -0.013366057  
     58820   0.18826476    -2.8943363     -2.7060904     -0.0073036647 
     58830   0.18918231    -2.8994732     -2.7103098     -0.014179774  
     58840   0.18866213    -2.9002482     -2.711605      -0.013475691  
     58850   0.19034948    -2.904118      -2.7137876     -0.013078957  
     58860   0.18916406    -2.9059316     -2.7167864     -0.0027454762 
     58870   0.19068004    -2.9127497     -2.7220888     -0.004201098  
     58880   0.19142429    -2.9140809     -2.7226757     -0.0032041388 
     58890   0.19078315    -2.9152151     -2.724451      -0.0045981287 
     58900   0.18842066    -2.915955      -2.7275532     -0.0057310733 
     58910   0.18507085    -2.9185552     -2.7335028     -0.0081417925 
     58920   0.18880943    -2.9212009     -2.7324104     -0.0054256895 
     58930   0.18932661    -2.9240614     -2.7347537     -0.0044991225 
     58940   0.18919139    -2.9249282     -2.7357558     -0.0031576132 
     58950   0.18504664    -2.9252237     -2.7401956      0.0037251547 
     58960   0.18484629    -2.9305516     -2.7457238     -0.0042687165 
     58970   0.18349453    -2.9281817     -2.7447055      0.006176062  
     58980   0.18339607    -2.9330537     -2.749676      -0.0079632404 
     58990   0.18429723    -2.9331404     -2.7488616     -0.01299179   
     59000   0.18348302    -2.936308      -2.7528433     -0.021904878  
     59010   0.18438469    -2.9406796     -2.7563133     -0.020286509  
     59020   0.18294497    -2.940659      -2.7577323     -0.0067921489 
     59030   0.18510749    -2.943812      -2.758723      -0.0037486242 
     59040   0.18208607    -2.944365      -2.7622971      0.0020022588 
     59050   0.18154965    -2.9466218     -2.7650903      0.0026685881 
     59060   0.18390893    -2.9512439     -2.7673533     -0.0072151662 
     59070   0.18503691    -2.9533878     -2.7683694     -0.011378924  
     59080   0.18193891    -2.9525269     -2.7706061     -0.00092157163
     59090   0.18144753    -2.9552289     -2.7737995      0.002419342  
     59100   0.18136941    -2.9581632     -2.776812      -0.00098359475
     59110   0.18161785    -2.9598264     -2.7782267     -0.0015115235 
     59120   0.17991375    -2.9628265     -2.7829307     -0.0048107114 
     59130   0.17984414    -2.9651052     -2.7852791     -0.0026508749 
     59140   0.17892333    -2.9667952     -2.7878898      0.00080673161
     59150   0.18023774    -2.9701045     -2.7898848      0.0031918175 
     59160   0.17902423    -2.9700822     -2.7910759      0.0047184576 
     59170   0.17918998    -2.9739975     -2.7948254     -0.00094953959
     59180   0.17992233    -2.9759526     -2.7960482      0.0043925003 
     59190   0.1795866     -2.9769        -2.7973314      0.0050401906 
     59200   0.17548401    -2.9768828     -2.8014164      0.007013302  
     59210   0.17607786    -2.9810255     -2.8049653      0.0016105094 
     59220   0.17483831    -2.9816658     -2.8068449      0.00040734915
     59230   0.17472647    -2.9836887     -2.8089797     -0.0035203184 
     59240   0.17469455    -2.9853909     -2.8107138     -0.0063970293 
     59250   0.1722647     -2.9864267     -2.8141793     -0.0045142716 
     59260   0.17304177    -2.9889159     -2.8158915     -0.0066538085 
     59270   0.17301957    -2.9899877     -2.8169854     -0.0019287007 
     59280   0.17285459    -2.9934807     -2.8206434      0.0031820343 
     59290   0.17376181    -2.9954889     -2.8217444      0.003996228  
     59300   0.17438343    -2.9999533     -2.8255873      0.0016190256 
     59310   0.17309725    -3.0012066     -2.8281267      0.0066293796 
     59320   0.17152256    -3.0038192     -2.8323138      0.0013824165 
     59330   0.1736156     -3.0047278     -2.8311295     -0.0017166481 
     59340   0.17330072    -3.0070377     -2.8337543     -0.0056799405 
     59350   0.17234612    -3.0081729     -2.835844      -0.0024452898 
     59360   0.1739623     -3.0123804     -2.8384355     -0.0082057221 
     59370   0.17224771    -3.0112611     -2.8390306      0.0019578493 
     59380   0.1686034     -3.013058      -2.8444714      0.0010136584 
     59390   0.17046122    -3.0169385     -2.8464943     -0.0091041003 
     59400   0.17083504    -3.0196372     -2.8488193     -0.012235128  
     59410   0.17005488    -3.0215423     -2.8515044     -0.010108468  
     59420   0.17002182    -3.0223067     -2.8523019     -0.0086587463 
     59430   0.1685091     -3.0235097     -2.8550174     -0.0041193151 
     59440   0.16688169    -3.0249032     -2.8580382     -0.0077529657 
     59450   0.16785683    -3.0298439     -2.8620038     -0.017689463  
     59460   0.16539004    -3.0281504     -2.8627769     -0.0043413806 
     59470   0.16590501    -3.0320576     -2.8661692     -0.0018833538 
     59480   0.16307808    -3.0322736     -2.8692118      0.0060313808 
     59490   0.16408137    -3.0333608     -2.8692958      0.011355427  
     59500   0.16554706    -3.0373414     -2.8718109      0.00062646395
     59510   0.16278954    -3.0360657     -2.8732925     -0.0024174833 
     59520   0.16560973    -3.0406999     -2.8751067     -0.012816632  
     59530   0.16431364    -3.0394726     -2.8751754      8.9043362e-05
     59540   0.16457851    -3.0454603     -2.8808983     -0.0042306089 
     59550   0.16407464    -3.0463191     -2.8822608      0.0058188382 
     59560   0.16460224    -3.0482314     -2.8836456      0.0055005443 
     59570   0.16372784    -3.0484813     -2.8847698      0.005642357  
     59580   0.16259285    -3.0497807     -2.8872042     -0.0019100839 
     59590   0.16320135    -3.0542438     -2.8910588     -0.012296669  
     59600   0.16031059    -3.0521719     -2.8918774     -0.0070060059 
     59610   0.15838635    -3.0534018     -2.8950313     -0.0091962029 
     59620   0.15803231    -3.0552457     -2.8972292     -0.012947571  
     59630   0.15881599    -3.0582037     -2.8994036     -0.015419008  
     59640   0.16021386    -3.0605241     -2.9003262     -0.01145578   
     59650   0.15920647    -3.0606292     -2.9014386     -0.0021959323 
     59660   0.15760868    -3.0620668     -2.9044739      0.0014034056 
     59670   0.15876391    -3.0651375     -2.9063895     -0.0030487884 
     59680   0.15669595    -3.0657441     -2.9090638     -0.00010617329
     59690   0.15454042    -3.0654412     -2.9109162      0.012070464  
     59700   0.15702096    -3.0709056     -2.9139004      0.0040373331 
     59710   0.15601177    -3.0724078     -2.9164117      0.0077434291 
     59720   0.15420415    -3.0724473     -2.9182586      0.010118178  
     59730   0.15541467    -3.0766102     -2.9212111      0.0034151427 
     59740   0.15641324    -3.0776314     -2.9212338      0.0046279811 
     59750   0.15453902    -3.0769143     -2.9223907      0.0066042715 
     59760   0.15660806    -3.0827489     -2.9261565     -0.0071044381 
     59770   0.15449248    -3.08217       -2.9276929     -0.0039079075 
     59780   0.15494318    -3.0836303     -2.9287026     -0.0015799831 
     59790   0.15390224    -3.0846212     -2.9307344     -0.0024900121 
     59800   0.15183684    -3.0855499     -2.9337283     -0.0050743778 
     59810   0.1503472     -3.0844952     -2.934163       0.0014273118 
     59820   0.15152042    -3.0888611     -2.9373559     -0.0031754836 
     59830   0.15170096    -3.0911225     -2.9394367     -4.5102531e-05
     59840   0.15120657    -3.0916638     -2.9404723     -0.00018952259
     59850   0.15043353    -3.0935571     -2.9431386     -0.0043273226 
     59860   0.15056398    -3.0937052     -2.9431563      0.0010454123 
     59870   0.15074524    -3.0965611     -2.945831      -0.0048583556 
     59880   0.14928611    -3.0986753     -2.9494041     -0.012355996  
     59890   0.14829835    -3.0992158     -2.9509323     -0.012306884  
     59900   0.14941176    -3.1007773     -2.9513805     -0.011328548  
     59910   0.14900622    -3.1025849     -2.9535935     -0.010751545  
     59920   0.14627752    -3.1025032     -2.9562403      0.001363874  
     59930   0.14594793    -3.1033179     -2.9573846      0.0067678135 
     59940   0.14735007    -3.1073123     -2.959977      -0.00033485493
     59950   0.1466048     -3.109161      -2.9625709     -0.0018961164 
     59960   0.14512826    -3.1094036     -2.9642899      6.7712415e-06
     59970   0.14652169    -3.1127723     -2.9662653     -0.0045392254 
     59980   0.14528555    -3.1125939     -2.9673229      0.0033554457 
     59990   0.14704981    -3.1147113     -2.9676762      0.0056222021 
     60000   0.14509448    -3.1154348     -2.9703548      0.0043510292 
     60010   0.1454327     -3.1186297     -2.9732115     -0.0021659765 
     60020   0.14435146    -3.1190858     -2.9747487     -0.0048842661 
     60030   0.14360829    -3.1205833     -2.9769894     -0.011304171  
     60040   0.14409632    -3.1225811     -2.9784992     -0.014677889  
     60050   0.14306479    -3.1235577     -2.9805072     -0.0084658552 
     60060   0.13909702    -3.1215216     -2.9824385      0.0059394816 
     60070   0.14436716    -3.1279369     -2.9835842     -0.0051825    
     60080   0.14175586    -3.1261542     -2.9844125      0.0031707826 
     60090   0.14064113    -3.1283091     -2.987682       0.0010438548 
     60100   0.14013926    -3.1285372     -2.988412      -0.0014008016 
     60110   0.13975794    -3.1306464     -2.9909024     -0.010424214  
     60120   0.14017069    -3.1326788     -2.9925222     -0.012479581  
     60130   0.13966674    -3.1330075     -2.9933548     -0.0048929522 
     60140   0.13894643    -3.1365988     -2.9976662     -0.0069956089 
     60150   0.13899954    -3.1384992     -2.9995136     -0.0048133273 
     60160   0.13925117    -3.1380473     -2.9988101      0.0024899948 
     60170   0.14072674    -3.1421669     -3.0014542     -0.0011372127 
     60180   0.13936003    -3.1424679     -3.0031218      0.0050665574 
     60190   0.13727924    -3.1430705     -3.005805       0.0068317068 
     60200   0.13974042    -3.1450904     -3.0053639      0.001746867  
     60210   0.13710362    -3.1450581     -3.0079682      0.0027492318 
     60220   0.13751848    -3.1489086     -3.0114039     -0.0068541837 
     60230   0.13785552    -3.1486428     -3.0108011     -0.0036059603 
     60240   0.13664728    -3.1485421     -3.0119085      0.0043126043 
     60250   0.13601609    -3.1507392     -3.0147367      0.0025478352 
     60260   0.13454049    -3.1507996     -3.0162725      0.0041062135 
     60270   0.13461275    -3.1534069     -3.0188076     -0.0047868963 
     60280   0.13415204    -3.1529492     -3.0188106     -0.0066671268 
     60290   0.13527033    -3.1566051     -3.0213483     -0.01759487   
     60300   0.13572181    -3.1575657     -3.0218575     -0.016892178  
     60310   0.13449931    -3.1590986     -3.0246128     -0.012570491  
     60320   0.13501859    -3.1629047     -3.0278996     -0.0084916504 
     60330   0.13378733    -3.1613551     -3.0275811      0.0081091188 
     60340   0.13528568    -3.1654085     -3.0301364      0.0060113763 
     60350   0.13477898    -3.1668561     -3.0320906      0.0067929291 
     60360   0.13270926    -3.1679612     -3.0352652      0.0057442448 
     60370   0.13161578    -3.1675994     -3.0359968      0.0039622044 
     60380   0.13278989    -3.1706926     -3.037916      -0.0014979684 
     60390   0.13238384    -3.1723074     -3.0399368     -0.0045938931 
     60400   0.13158727    -3.1721854     -3.0406113     -0.00086181799
     60410   0.13056319    -3.1733211     -3.042771      -0.0014385382 
     60420   0.12903827    -3.1733325     -3.0443071     -0.0023124212 
     60430   0.12933608    -3.1765388     -3.0472157     -0.011034717  
     60440   0.13026384    -3.1782271     -3.0479763     -0.012139946  
     60450   0.12938644    -3.1792901     -3.0499166     -0.0053345655 
     60460   0.12990364    -3.1804506     -3.0505599     -0.0039555493 
     60470   0.12761226    -3.182213      -3.0546135     -0.0082406048 
     60480   0.12811477    -3.1831042     -3.0550023     -0.0070862411 
     60490   0.12623551    -3.1840294     -3.0578065     -0.008344545  
     60500   0.1266208     -3.1857363     -3.0591281     -0.0037150975 
     60510   0.12717329    -3.1866742     -3.0595136      0.0018468567 
     60520   0.12669742    -3.1904861     -3.0638014     -0.0045186323 
     60530   0.12732833    -3.1915801     -3.0642645     -0.0022360193 
     60540   0.12684642    -3.1925884     -3.0657546     -0.0002022249 
     60550   0.1243348     -3.1926582     -3.0683358      0.0044641226 
     60560   0.12508273    -3.1948252     -3.069755       0.0073116162 
     60570   0.12480992    -3.1948728     -3.0700753      0.010628603  
     60580   0.12447996    -3.1958455     -3.071378       0.012935265  
     60590   0.12304782    -3.1971872     -3.0741517      0.013204627  
     60600   0.12361543    -3.1999551     -3.076352       0.0029912466 
     60610   0.12297151    -3.2002438     -3.0772846     -0.0010959046 
     60620   0.1217169     -3.2011282     -3.0794234     -0.0041327248 
     60630   0.12257443    -3.2026472     -3.080085      -0.0055026493 
     60640   0.12298068    -3.2048841     -3.0819157     -0.0068473495 
     60650   0.12152295    -3.2051307     -3.0836199     -0.0042311983 
     60660   0.12175176    -3.2061968     -3.0844572     -0.0051461847 
     60670   0.12219557    -3.2084492     -3.0862659     -0.0024973936 
     60680   0.12248171    -3.2103218     -3.0878523      0.0033997936 
     60690   0.12250947    -3.2121504     -3.0896532      0.0052427767 
     60700   0.12065693    -3.2118043     -3.0911594      0.0088217971 
     60710   0.12119486    -3.2150534     -3.0938707      0.00046263556
     60720   0.12012023    -3.2151193     -3.0950111     -0.0005794707 
     60730   0.12078368    -3.2187783     -3.0980067     -0.0090306658 
     60740   0.11979483    -3.2183008     -3.098518      -0.0080357473 
     60750   0.11829301    -3.2183327     -3.1000515     -0.0083534874 
     60760   0.11785603    -3.2196773     -3.1018331     -0.01194112   
     60770   0.11811558    -3.2217499     -3.1036461     -0.017431559  
     60780   0.11686134    -3.2222254     -3.1053758     -0.012873131  
     60790   0.11644017    -3.2223711     -3.1059425     -0.0049995721 
     60800   0.11694035    -3.2259957     -3.109067      -0.0066609431 
     60810   0.1168863     -3.2252826     -3.108408      -0.001826708  
     60820   0.11538292    -3.227547      -3.1121756     -0.0076240342 
     60830   0.11527203    -3.2289858     -3.1137253     -0.0052211484 
     60840   0.11486874    -3.2305964     -3.1157392      0.00026910705
     60850   0.11450326    -3.2310006     -3.1165088      0.0039331575 
     60860   0.11413262    -3.2332214     -3.1191002     -0.00036948828
     60870   0.11516384    -3.2353873     -3.120235      -0.0061642389 
     60880   0.11547488    -3.2377071     -3.1222437     -0.012471711  
     60890   0.11307524    -3.236566      -3.1235021     -0.0047886461 
     60900   0.11362357    -3.2393137     -3.1257015     -0.0081835322 
     60910   0.11247851    -3.2377378     -3.1252706     -0.0023112424 
     60920   0.11289488    -3.2417789     -3.1288953     -0.0067436647 
     60930   0.11260045    -3.2424443     -3.1298552     -0.005457157  
     60940   0.11152015    -3.2430181     -3.1315091     -0.0057091005 
     60950   0.11065903    -3.2425446     -3.1318966      0.00040525994
     60960   0.10906495    -3.2435921     -3.134538       0.00096887661
     60970   0.10911165    -3.2453095     -3.1362088      0.0024428636 
     60980   0.11018526    -3.2484304     -3.1382562      0.0010801615 
     60990   0.10973991    -3.2501183     -3.1403894      0.0039351711 
     61000   0.1097341     -3.2504669     -3.1407438      0.0097312073 
Loop time of 720.325 on 12 procs for 50000 steps with 10000 atoms

Performance: 29986.458 tau/day, 69.413 timesteps/s, 694.131 katom-step/s
129.3% CPU use with 1 MPI tasks x 12 OpenMP threads

MPI task timing breakdown:
Section |  min time  |  avg time  |  max time  |%varavg| %total
---------------------------------------------------------------
Pair    | 597.58     | 597.58     | 597.58     |   0.0 | 82.96
Neigh   | 3.6042     | 3.6042     | 3.6042     |   0.0 |  0.50
Comm    | 2.8447     | 2.8447     | 2.8447     |   0.0 |  0.39
Output  | 9.973      | 9.973      | 9.973      |   0.0 |  1.38
Modify  | 90.88      | 90.88      | 90.88      |   0.0 | 12.62
Other   |            | 15.45      |            |       |  2.14

Nlocal:          10000 ave       10000 max       10000 min
Histogram: 1 0 0 0 0 0 0 0 0 0
Nghost:            657 ave         657 max         657 min
Histogram: 1 0 0 0 0 0 0 0 0 0
Neighs:          66393 ave       66393 max       66393 min
Histogram: 1 0 0 0 0 0 0 0 0 0

Total # of neighbors = 66393
Ave neighs/atom = 6.6393
Neighbor list builds = 2070
Dangerous builds = 0
unfix mynvt
Total wall time: 0:14:57
