LAMMPS (22 Jul 2025 - Update 3)
  using 16 OpenMP thread(s) per MPI task
package omp 0
using multi-threaded neighbor list subroutines
units lj
atom_style ellipsoid
dimension 2
boundary p p p

region       myregion block 0 30 0 30 -1 1
create_box   1 myregion
Created orthogonal box = (0 0 -1) to (30 30 1)
  1 by 1 by 1 MPI processor grid
create_atoms 1 random 1000 123456 myregion overlap 2.0
WARNING: Only inserted 155 particles out of 1000 (src/src/create_atoms.cpp:937)
Created 155 atoms
  using lattice units in orthogonal box = (0 0 -1) to (30 30 1)
  create_atoms CPU = 0.787 seconds

set          type 1 shape 3 1 1
Setting atom values ...
  155 settings made for shape
set          group all quat/random 123456
Setting atom values ...
  155 settings made for quat/random

pair_style   gayberne 1.0 3.0 1.0 10.0
pair_coeff   1 1 1.0 1.0 1 1 0.2 0 0 0

neighbor     1.0 bin

thermo 10
thermo_style custom step epair etotal

compute      0 all property/atom quatw quati quatj quatk shapex shapey shapez
dump mydump all custom 100 gb_base.lammpstraj id type x y z c_0[*]
dump_modify mydump             colname c_0[1] quatw             colname c_0[2] quati             colname c_0[3] quatj             colname c_0[4] quatk             colname c_0[5] shapex             colname c_0[6] shapey             colname c_0[7] shapez

minimize 1e-6 1e-8 1000 10000

CITE-CITE-CITE-CITE-CITE-CITE-CITE-CITE-CITE-CITE-CITE-CITE-CITE

Your simulation uses code contributions which should be cited:

- pair gayberne command: doi:10.1063/1.3058435

@Article{Brown09,
 author =  {W. M. Brown and M. K. Petersen and S. J. Plimpton and G. S. Grest},
 title =   {Liquid Crystal Nanodroplets in Solution},
 journal = {J.~Chem.\ Phys.},
 year =    2009,
 volume =  130,
 number =  4,
 pages =   {044901}
}

CITE-CITE-CITE-CITE-CITE-CITE-CITE-CITE-CITE-CITE-CITE-CITE-CITE

Generated 0 of 0 mixed pair_coeff terms from geometric mixing rule
Last active /omp style is pair_style gayberne/omp
Neighbor list info ...
  update: every = 1 steps, delay = 0 steps, check = yes
  max neighbors/atom: 2000, page size: 100000
  master list distance cutoff = 11
  ghost atom cutoff = 11
  binsize = 5.5, bins = 6 6 1
  1 neighbor lists, perpetual/occasional/extra = 1 0 0
  (1) pair gayberne/omp, perpetual
      attributes: half, newton on, omp
      pair build: half/bin/atomonly/newton/omp
      stencil: half/bin/2d
      bin: standard
Per MPI rank memory allocation (min/avg/max) = 26.62 | 26.62 | 26.62 Mbytes
   Step         E_pair         TotEng    
         0   9733650.6      9733650.6    
        10   162.68549      162.68549    
        20  -0.45625373    -0.45625373   
        30  -0.92594658    -0.92594658   
        40  -0.98592973    -0.98592973   
        50  -1.0419363     -1.0419363    
        60  -1.0747745     -1.0747745    
        70  -1.0913671     -1.0913671    
        80  -1.1190094     -1.1190094    
        90  -1.1435748     -1.1435748    
       100  -1.1568337     -1.1568337    
       110  -1.1639908     -1.1639908    
       120  -1.174317      -1.174317     
       130  -1.1905852     -1.1905852    
       140  -1.2043423     -1.2043423    
       150  -1.2270785     -1.2270785    
       160  -1.2531551     -1.2531551    
       170  -1.2574949     -1.2574949    
       180  -1.2682263     -1.2682263    
       185  -1.2703742     -1.2703742    
Loop time of 0.127762 on 16 procs for 185 steps with 155 atoms

1526.6% CPU use with 1 MPI tasks x 16 OpenMP threads

Minimization stats:
  Stopping criterion = energy tolerance
  Energy initial, next-to-last, final = 
      9733650.62956458  -1.27037368383906  -1.27037419285817
  Force two-norm initial, final = 1.2766559e+11 8.2870229
  Force max component initial, final = 7.103786e+10 4.9295851
  Final line search alpha, max atom move = 0.038885168 0.19168775
  Iterations, force evaluations = 185 427

MPI task timing breakdown:
Section |  min time  |  avg time  |  max time  |%varavg| %total
---------------------------------------------------------------
Pair    | 0.1066     | 0.1066     | 0.1066     |   0.0 | 83.43
Neigh   | 0.00011643 | 0.00011643 | 0.00011643 |   0.0 |  0.09
Comm    | 0.0037396  | 0.0037396  | 0.0037396  |   0.0 |  2.93
Output  | 0.00099279 | 0.00099279 | 0.00099279 |   0.0 |  0.78
Modify  | 0.013684   | 0.013684   | 0.013684   |   0.0 | 10.71
Other   |            | 0.002631   |            |       |  2.06

Nlocal:            155 ave         155 max         155 min
Histogram: 1 0 0 0 0 0 0 0 0 0
Nghost:            310 ave         310 max         310 min
Histogram: 1 0 0 0 0 0 0 0 0 0
Neighs:           4994 ave        4994 max        4994 min
Histogram: 1 0 0 0 0 0 0 0 0 0

Total # of neighbors = 4994
Ave neighs/atom = 32.219355
Neighbor list builds = 4
Dangerous builds = 0

thermo 100
thermo_style custom step temp epair etotal

timestep 0.005

fix mynvt all nvt/asphere temp 2.0 0.5 $(100.0*dt)
fix mynvt all nvt/asphere temp 2.0 0.5 0.5
run 10000
Generated 0 of 0 mixed pair_coeff terms from geometric mixing rule
Last active /omp style is pair_style gayberne/omp
Per MPI rank memory allocation (min/avg/max) = 27.63 | 27.63 | 27.63 Mbytes
   Step          Temp          E_pair         TotEng    
       185   0             -1.2703742     -1.2703742    
       200   0.0010354048  -1.281414      -1.2803853    
       300   0.097598721   -1.4194459     -1.3224769    
       400   0.26936171    -1.4704485     -1.2028246    
       500   0.54020199    -1.391371      -0.85465415   
       600   0.86511474    -1.263027      -0.40349367   
       700   1.4383049     -0.96804372     0.46098179   
       800   2.0370212     -0.8109839      1.2128952    
       900   2.2190078     -0.64447237     1.5602193    
      1000   1.7755313     -0.57065134     1.1934249    
      1100   1.556382      -0.74892417     0.79741668   
      1200   1.5711589     -0.66364652     0.89737586   
      1300   2.0412481     -0.67166157     1.3564172    
      1400   2.1800128     -0.65254104     1.5134071    
      1500   1.744065      -0.72304296     1.0097701    
      1600   1.522028      -0.71765145     0.794557     
      1700   1.5885562     -0.76461739     0.81369006   
      1800   1.9542169     -0.68569362     1.2559154    
      1900   1.7698603     -0.68245957     1.0759823    
      2000   1.5445139     -0.80693725     0.72761208   
      2100   1.3888381     -0.64640973     0.73346816   
      2200   1.8038757     -0.72707509     1.0651627    
      2300   1.9137036     -0.64171554     1.2596415    
      2400   1.6547491     -0.66137412     0.98269917   
      2500   1.5772705     -0.64917101     0.91792356   
      2600   1.5099723     -0.73108734     0.76914324   
      2700   1.7500773     -0.78312        0.95566651   
      2800   1.8013693     -0.74179629     1.0479513    
      2900   1.5315926     -0.81242555     0.70928578   
      3000   1.3244328     -0.75143949     0.56444856   
      3100   1.5558196     -0.84264691     0.70313515   
      3200   1.7229519     -0.74890768     0.96292837   
      3300   1.5320998     -0.66271676     0.85949848   
      3400   1.4050476     -0.73444382     0.66153892   
      3500   1.5971393     -0.8428591      0.7439761    
      3600   1.59249       -0.7109208      0.87129511   
      3700   1.4250371     -0.79490024     0.62094311   
      3800   1.2012461     -0.75216528     0.44133089   
      3900   1.2912205     -0.77969656     0.50319347   
      4000   1.5746105     -0.67280845     0.89164331   
      4100   1.4961477     -0.70009275     0.78640239   
      4200   1.3992512     -0.84181503     0.54840873   
      4300   1.3006624     -0.80906767     0.48320336   
      4400   1.393973      -0.85978865     0.52519099   
      4500   1.280957      -0.8814958      0.39119699   
      4600   1.295627      -0.78638818     0.50087996   
      4700   1.3724742     -0.91818766     0.44543186   
      4800   1.317937      -0.87447216     0.43496198   
      4900   1.3762662     -0.75962615     0.60776089   
      5000   1.2211853     -0.86473493     0.34857175   
      5100   1.2246228     -0.93730753     0.27941443   
      5200   1.2505523     -0.88805214     0.35443204   
      5300   1.3682261     -0.88896265     0.4704362    
      5400   1.2963397     -0.92594183     0.36203435   
      5500   1.0228124     -0.86940192     0.14681171   
      5600   1.1527981     -0.9165494      0.22881124   
      5700   1.1467888     -0.76228411     0.37710601   
      5800   1.1507184     -0.85404992     0.28924452   
      5900   1.102673      -0.86580472     0.22975429   
      6000   1.0868262     -0.88312991     0.19668448   
      6100   0.9453849     -0.95058413    -0.011298485  
      6200   1.093714      -0.96283399     0.12382384   
      6300   1.1755109     -0.86986547     0.29806153   
      6400   1.1655292     -0.87705812     0.28095151   
      6500   1.0878233     -0.85667798     0.22412706   
      6600   0.95587313    -0.84412959     0.10557662   
      6700   1.0762835     -0.8793842      0.18995558   
      6800   1.0844279     -0.75338531     0.32404625   
      6900   1.1687865     -0.88296711     0.27827888   
      7000   0.91715843    -0.85704614     0.054195139  
      7100   0.90154571    -0.84726273     0.048466549  
      7200   0.86038889    -0.92332888    -0.06849088   
      7300   0.78800783    -0.87444405    -0.091520143  
      7400   1.0952714     -0.92743794     0.16076718   
      7500   1.0264523     -0.90815376     0.11167628   
      7600   0.77377348    -0.92455838    -0.15577698   
      7700   0.78941717    -0.91780455    -0.13348039   
      7800   0.79860199    -0.97061827    -0.17716855   
      7900   0.75290373    -0.93419902    -0.18615273   
      8000   0.72327768    -1.0136075     -0.29499617   
      8100   0.73117351    -0.9267434     -0.20028714   
      8200   0.77679186    -0.90854081    -0.13676051   
      8300   0.7937405     -0.95161946    -0.16299986   
      8400   0.76769522    -0.93769022    -0.17494787   
      8500   0.77239412    -1.0382077     -0.27079675   
      8600   0.70900969    -1.0030331     -0.29859765   
      8700   0.61119279    -1.0071119     -0.39986226   
      8800   0.62465302    -1.0404841     -0.41986112   
      8900   0.71508919    -1.0728471     -0.36237136   
      9000   0.71505139    -1.0550683     -0.34463013   
      9100   0.65305772    -1.0686711     -0.41982662   
      9200   0.61243681    -1.0822802     -0.47379461   
      9300   0.69147132    -1.1052839     -0.41827369   
      9400   0.66055994    -1.0816762     -0.42537798   
      9500   0.57226578    -1.0956121     -0.52703835   
      9600   0.55312244    -1.1427722     -0.59321827   
      9700   0.54364297    -1.1990433     -0.6589077    
      9800   0.49551348    -1.1974586     -0.70514194   
      9900   0.48882899    -1.2343765     -0.74870124   
     10000   0.5252247     -1.2027641     -0.68092793   
     10100   0.59958701    -1.1892599     -0.59354123   
     10185   0.55675681    -1.2330242     -0.6798594    
Loop time of 2.31823 on 16 procs for 10000 steps with 155 atoms

Performance: 1863490.816 tau/day, 4313.636 timesteps/s, 668.614 katom-step/s
1535.7% CPU use with 1 MPI tasks x 16 OpenMP threads

MPI task timing breakdown:
Section |  min time  |  avg time  |  max time  |%varavg| %total
---------------------------------------------------------------
Pair    | 1.7774     | 1.7774     | 1.7774     |   0.0 | 76.67
Neigh   | 0.0062064  | 0.0062064  | 0.0062064  |   0.0 |  0.27
Comm    | 0.093511   | 0.093511   | 0.093511   |   0.0 |  4.03
Output  | 0.054054   | 0.054054   | 0.054054   |   0.0 |  2.33
Modify  | 0.34117    | 0.34117    | 0.34117    |   0.0 | 14.72
Other   |            | 0.04588    |            |       |  1.98

Nlocal:            155 ave         155 max         155 min
Histogram: 1 0 0 0 0 0 0 0 0 0
Nghost:            310 ave         310 max         310 min
Histogram: 1 0 0 0 0 0 0 0 0 0
Neighs:           5010 ave        5010 max        5010 min
Histogram: 1 0 0 0 0 0 0 0 0 0

Total # of neighbors = 5010
Ave neighs/atom = 32.322581
Neighbor list builds = 320
Dangerous builds = 0
unfix mynvt

fix mynvt all nvt/asphere temp 0.5 0.1 $(100.0*dt)
fix mynvt all nvt/asphere temp 0.5 0.1 0.5
run 10000
Generated 0 of 0 mixed pair_coeff terms from geometric mixing rule
Last active /omp style is pair_style gayberne/omp
Per MPI rank memory allocation (min/avg/max) = 27.63 | 27.63 | 27.63 Mbytes
   Step          Temp          E_pair         TotEng    
     10185   0.55675681    -1.2330242     -0.6798594    
     10200   0.59861463    -1.2872081     -0.69245549   
     10300   0.5373693     -1.318267      -0.78436462   
     10400   0.43559937    -1.3093064     -0.87651736   
     10500   0.52023513    -1.4430651     -0.92618634   
     10600   0.45288378    -1.4573366     -1.0073747    
     10700   0.40320485    -1.384121      -0.98351748   
     10800   0.56273332    -1.4748657     -0.91576296   
     10900   0.52734695    -1.4560117     -0.93206696   
     11000   0.41592644    -1.4610399     -1.0477969    
     11100   0.44640524    -1.4756724     -1.0321472    
     11200   0.47977498    -1.4762856     -0.99960591   
     11300   0.49022766    -1.5369236     -1.0498587    
     11400   0.44141846    -1.5818702     -1.1432996    
     11500   0.42418104    -1.6212488     -1.1998044    
     11600   0.41183837    -1.6274508     -1.2182695    
     11700   0.39337356    -1.5907646     -1.1999289    
     11800   0.45645744    -1.5888743     -1.1353618    
     11900   0.51192073    -1.5858753     -1.0772573    
     12000   0.46567633    -1.6264958     -1.1638238    
     12100   0.41723287    -1.6001042     -1.1855631    
     12200   0.43345821    -1.6211099     -1.1904482    
     12300   0.47700029    -1.6808849     -1.2069621    
     12400   0.41260447    -1.7070684     -1.2971259    
     12500   0.41808968    -1.7730933     -1.357701     
     12600   0.39893262    -1.7844751     -1.3881162    
     12700   0.41769703    -1.8612245     -1.4462223    
     12800   0.39514534    -1.8840271     -1.4914311    
     12900   0.43207109    -1.8884102     -1.4591267    
     13000   0.39491241    -1.9091894     -1.5168249    
     13100   0.4152968     -1.9285541     -1.5159366    
     13200   0.36488577    -1.9587536     -1.5962219    
     13300   0.3739484     -2.0458192     -1.6742834    
     13400   0.37829079    -2.07295       -1.6970998    
     13500   0.39658168    -2.1249719     -1.7309489    
     13600   0.38071972    -2.1250131     -1.7467496    
     13700   0.35864087    -2.1547613     -1.7984342    
     13800   0.40931967    -2.2466507     -1.8399718    
     13900   0.35815544    -2.2739501     -1.9181054    
     14000   0.33668214    -2.3030135     -1.9685035    
     14100   0.38870135    -2.375091      -1.9888974    
     14200   0.35514776    -2.4469954     -2.0941389    
     14300   0.30616164    -2.4510859     -2.1468995    
     14400   0.32706407    -2.444211      -2.119257     
     14500   0.35912044    -2.4843924     -2.1275889    
     14600   0.30269477    -2.507468      -2.2067261    
     14700   0.35053156    -2.5802171     -2.231947     
     14800   0.29930314    -2.5759504     -2.2785782    
     14900   0.32685162    -2.6245131     -2.2997702    
     15000   0.31030101    -2.6923478     -2.3840488    
     15100   0.30568084    -2.7156908     -2.4119821    
     15200   0.31139697    -2.7834354     -2.4740474    
     15300   0.33742568    -2.8506183     -2.5153695    
     15400   0.29871427    -2.8420384     -2.5452513    
     15500   0.25941805    -2.824713      -2.5669686    
     15600   0.30497528    -2.8855937     -2.582586     
     15700   0.25894432    -2.9220813     -2.6648076    
     15800   0.26767414    -2.9519417     -2.6859945    
     15900   0.27426289    -3.0067751     -2.7342817    
     16000   0.25956221    -3.0385531     -2.7806655    
     16100   0.30019002    -3.1073928     -2.8091395    
     16200   0.25844881    -3.1206642     -2.8638828    
     16300   0.2719238     -3.1699729     -2.8998034    
     16400   0.25146616    -3.1680517     -2.9182079    
     16500   0.25829907    -3.1958553     -2.9392227    
     16600   0.25999563    -3.2266723     -2.968354     
     16700   0.27543567    -3.2712913     -2.9976327    
     16800   0.26184972    -3.2905829     -3.0304225    
     16900   0.25620597    -3.3550543     -3.1005013    
     17000   0.23066881    -3.3662669     -3.1370863    
     17100   0.22544427    -3.4180336     -3.1940438    
     17200   0.20066611    -3.3919373     -3.1925658    
     17300   0.21204356    -3.4228287     -3.2121531    
     17400   0.20019217    -3.4124403     -3.2135397    
     17500   0.20760701    -3.4680565     -3.2617889    
     17600   0.18601456    -3.5000694     -3.315255     
     17700   0.22903014    -3.5166399     -3.2890874    
     17800   0.19758238    -3.5021858     -3.3058781    
     17900   0.19277675    -3.5080311     -3.3164981    
     18000   0.19849108    -3.5524175     -3.355207     
     18100   0.16527319    -3.5576256     -3.3934186    
     18200   0.1847806     -3.5526912     -3.3691028    
     18300   0.20416043    -3.5643635     -3.3615202    
     18400   0.16982735    -3.5552192     -3.3864875    
     18500   0.18084366    -3.6033506     -3.4236737    
     18600   0.1877684     -3.6179128     -3.4313558    
     18700   0.16596515    -3.6120254     -3.447131     
     18800   0.15725643    -3.6178004     -3.4615585    
     18900   0.14337635    -3.6284662     -3.4860149    
     19000   0.15461858    -3.6423618     -3.4887408    
     19100   0.14328981    -3.6432316     -3.5008662    
     19200   0.1400119     -3.6698765     -3.5307679    
     19300   0.13069651    -3.6512412     -3.5213878    
     19400   0.12739296    -3.680944      -3.554373     
     19500   0.13429169    -3.6893268     -3.5559015    
     19600   0.13238224    -3.6964722     -3.5649441    
     19700   0.12663762    -3.6931891     -3.5673685    
     19800   0.12518995    -3.7402511     -3.6158689    
     19900   0.11822804    -3.7459074     -3.6284421    
     20000   0.11684277    -3.7496433     -3.6335543    
     20100   0.11103721    -3.7675336     -3.6572128    
     20185   0.10841582    -3.7807431     -3.6730268    
Loop time of 2.54363 on 16 procs for 10000 steps with 155 atoms

Performance: 1698360.133 tau/day, 3931.389 timesteps/s, 609.365 katom-step/s
1550.1% CPU use with 1 MPI tasks x 16 OpenMP threads

MPI task timing breakdown:
Section |  min time  |  avg time  |  max time  |%varavg| %total
---------------------------------------------------------------
Pair    | 2.0481     | 2.0481     | 2.0481     |   0.0 | 80.52
Neigh   | 0.0029147  | 0.0029147  | 0.0029147  |   0.0 |  0.11
Comm    | 0.086012   | 0.086012   | 0.086012   |   0.0 |  3.38
Output  | 0.060999   | 0.060999   | 0.060999   |   0.0 |  2.40
Modify  | 0.3009     | 0.3009     | 0.3009     |   0.0 | 11.83
Other   |            | 0.0447     |            |       |  1.76

Nlocal:            155 ave         155 max         155 min
Histogram: 1 0 0 0 0 0 0 0 0 0
Nghost:            299 ave         299 max         299 min
Histogram: 1 0 0 0 0 0 0 0 0 0
Neighs:           5291 ave        5291 max        5291 min
Histogram: 1 0 0 0 0 0 0 0 0 0

Total # of neighbors = 5291
Ave neighs/atom = 34.135484
Neighbor list builds = 139
Dangerous builds = 0
unfix mynvt

fix mynvt all nvt/asphere temp 0.1 0.01 $(100.0*dt)
fix mynvt all nvt/asphere temp 0.1 0.01 0.5
run 10000
Generated 0 of 0 mixed pair_coeff terms from geometric mixing rule
Last active /omp style is pair_style gayberne/omp
Per MPI rank memory allocation (min/avg/max) = 27.63 | 27.63 | 27.63 Mbytes
   Step          Temp          E_pair         TotEng    
     20185   0.10841582    -3.7807431     -3.6730268    
     20200   0.10511386    -3.7790215     -3.6745857    
     20300   0.098760515   -3.7723468     -3.6742235    
     20400   0.095397836   -3.7759425     -3.6811601    
     20500   0.092599818   -3.7813317     -3.6893293    
     20600   0.082095484   -3.7758446     -3.6942788    
     20700   0.091196752   -3.767145      -3.6765366    
     20800   0.10594803    -3.7678458     -3.6625813    
     20900   0.092517949   -3.7672382     -3.6753172    
     21000   0.086521403   -3.7789009     -3.6929377    
     21100   0.07598678    -3.7707235     -3.695227     
     21200   0.10362691    -3.7857164     -3.6827581    
     21300   0.087579876   -3.7745246     -3.6875097    
     21400   0.086637367   -3.7829067     -3.6968283    
     21500   0.088972147   -3.8052762     -3.7168781    
     21600   0.088528188   -3.8038377     -3.7158807    
     21700   0.086857811   -3.7957967     -3.7094993    
     21800   0.093673358   -3.7868361     -3.6937671    
     21900   0.087635911   -3.781676      -3.6946055    
     22000   0.083596552   -3.784104      -3.7010468    
     22100   0.080850377   -3.7985025     -3.7181737    
     22200   0.079366787   -3.8057928     -3.726938     
     22300   0.07940447    -3.7992965     -3.7204043    
     22400   0.076396337   -3.7964881     -3.7205846    
     22500   0.081275796   -3.8066854     -3.725934     
     22600   0.078887456   -3.8083833     -3.7300048    
     22700   0.084087588   -3.827286      -3.7437409    
     22800   0.076742741   -3.8201531     -3.7439055    
     22900   0.068826089   -3.8237746     -3.7553925    
     23000   0.079114167   -3.8150083     -3.7364045    
     23100   0.080412257   -3.8120018     -3.7321083    
     23200   0.077789218   -3.8199998     -3.7427125    
     23300   0.071102512   -3.8252426     -3.7545988    
     23400   0.078779621   -3.8303139     -3.7520425    
     23500   0.06858667    -3.8322124     -3.7640682    
     23600   0.068281191   -3.8311388     -3.7632981    
     23700   0.076979094   -3.8267946     -3.7503121    
     23800   0.078772502   -3.8210643     -3.7428001    
     23900   0.066797709   -3.8192588     -3.752892     
     24000   0.070250354   -3.8303718     -3.7605747    
     24100   0.075028273   -3.8388968     -3.7643526    
     24200   0.062050125   -3.8283223     -3.7666725    
     24300   0.064232492   -3.8407403     -3.7769222    
     24400   0.056329638   -3.8370292     -3.781063     
     24500   0.059691984   -3.8501952     -3.7908884    
     24600   0.057956105   -3.8425282     -3.784946     
     24700   0.06049396    -3.8399124     -3.7798088    
     24800   0.060563769   -3.8366357     -3.7764627    
     24900   0.07305994    -3.8491051     -3.7765165    
     25000   0.056920531   -3.8520826     -3.7955293    
     25100   0.0563771     -3.8518266     -3.7958132    
     25200   0.055504511   -3.8432952     -3.7881488    
     25300   0.057051854   -3.8466545     -3.7899707    
     25400   0.059041275   -3.8480192     -3.7893588    
     25500   0.050834214   -3.8433744     -3.7928682    
     25600   0.046413404   -3.8503738     -3.8042598    
     25700   0.049734039   -3.8574907     -3.8080775    
     25800   0.052539719   -3.8507696     -3.7985689    
     25900   0.04816022    -3.849772      -3.8019225    
     26000   0.045825363   -3.8539924     -3.8084627    
     26100   0.040788404   -3.8600056     -3.8194803    
     26200   0.045220093   -3.8660764     -3.8211481    
     26300   0.045111157   -3.8659392     -3.8211191    
     26400   0.043046328   -3.8731294     -3.8303608    
     26500   0.040461507   -3.8769759     -3.8367754    
     26600   0.038730455   -3.8746823     -3.8362017    
     26700   0.037018414   -3.8620612     -3.8252816    
     26800   0.043366705   -3.8703916     -3.8273047    
     26900   0.038267816   -3.8668872     -3.8288663    
     27000   0.040688004   -3.8735276     -3.8331021    
     27100   0.044031656   -3.8839137     -3.8401661    
     27200   0.038483795   -3.8824937     -3.8442582    
     27300   0.034068791   -3.8778269     -3.8439779    
     27400   0.033431409   -3.8778118     -3.8445961    
     27500   0.03804148    -3.8827566     -3.8449606    
     27600   0.035424175   -3.8795752     -3.8443795    
     27700   0.03448962    -3.8833085     -3.8490414    
     27800   0.03275711    -3.8862978     -3.853752     
     27900   0.032874961   -3.8895534     -3.8568905    
     28000   0.028423309   -3.890982      -3.8627421    
     28100   0.028298949   -3.8909479     -3.8628316    
     28200   0.0248563     -3.8917973     -3.8671013    
     28300   0.026020553   -3.8949166     -3.8690639    
     28400   0.027064074   -3.8988728     -3.8719833    
     28500   0.028131127   -3.8970781     -3.8691284    
     28600   0.024492918   -3.8958042     -3.8714693    
     28700   0.024181791   -3.9006106     -3.8765848    
     28800   0.018499929   -3.8982097     -3.8798291    
     28900   0.021266614   -3.9014937     -3.8803643    
     29000   0.021932947   -3.905258      -3.8834665    
     29100   0.01740215    -3.9046592     -3.8873693    
     29200   0.019969649   -3.9068661     -3.8870253    
     29300   0.019447217   -3.9059707     -3.8866489    
     29400   0.018703114   -3.9086342     -3.8900518    
     29500   0.017371802   -3.909579      -3.8923193    
     29600   0.014941643   -3.9103123     -3.895467     
     29700   0.016122722   -3.9126883     -3.8966696    
     29800   0.014228713   -3.9131651     -3.8990282    
     29900   0.013395065   -3.9146465     -3.9013379    
     30000   0.012904898   -3.9159423     -3.9031206    
     30100   0.011254994   -3.9163489     -3.9051665    
     30185   0.011545706   -3.9196961     -3.9082249    
Loop time of 2.92588 on 16 procs for 10000 steps with 155 atoms

Performance: 1476480.440 tau/day, 3417.779 timesteps/s, 529.756 katom-step/s
1549.7% CPU use with 1 MPI tasks x 16 OpenMP threads

MPI task timing breakdown:
Section |  min time  |  avg time  |  max time  |%varavg| %total
---------------------------------------------------------------
Pair    | 2.4003     | 2.4003     | 2.4003     |   0.0 | 82.04
Neigh   | 0.0006255  | 0.0006255  | 0.0006255  |   0.0 |  0.02
Comm    | 0.09079    | 0.09079    | 0.09079    |   0.0 |  3.10
Output  | 0.065317   | 0.065317   | 0.065317   |   0.0 |  2.23
Modify  | 0.32451    | 0.32451    | 0.32451    |   0.0 | 11.09
Other   |            | 0.04437    |            |       |  1.52

Nlocal:            155 ave         155 max         155 min
Histogram: 1 0 0 0 0 0 0 0 0 0
Nghost:            297 ave         297 max         297 min
Histogram: 1 0 0 0 0 0 0 0 0 0
Neighs:           5170 ave        5170 max        5170 min
Histogram: 1 0 0 0 0 0 0 0 0 0

Total # of neighbors = 5170
Ave neighs/atom = 33.354839
Neighbor list builds = 31
Dangerous builds = 0
unfix mynvt

fix mynvt all nvt/asphere temp 0.01 0.001 $(100.0*dt)
fix mynvt all nvt/asphere temp 0.01 0.001 0.5
run 10000
Generated 0 of 0 mixed pair_coeff terms from geometric mixing rule
Last active /omp style is pair_style gayberne/omp
Per MPI rank memory allocation (min/avg/max) = 27.63 | 27.63 | 27.63 Mbytes
   Step          Temp          E_pair         TotEng    
     30185   0.011545706   -3.9196961     -3.9082249    
     30200   0.01187428    -3.9189325     -3.9071348    
     30300   0.010696019   -3.9194033     -3.9087763    
     30400   0.0093466235  -3.9199745     -3.9106881    
     30500   0.009982265   -3.9218473     -3.9119294    
     30600   0.0094219621  -3.9211807     -3.9118195    
     30700   0.0085358693  -3.9204569     -3.9119761    
     30800   0.010279852   -3.9220047     -3.9117911    
     30900   0.0098847374  -3.9223633     -3.9125423    
     31000   0.0087592092  -3.92167       -3.9129673    
     31100   0.0094869704  -3.9231322     -3.9137064    
     31200   0.0098434342  -3.922686      -3.912906     
     31300   0.0089358909  -3.9211044     -3.9122262    
     31400   0.0098787357  -3.9212457     -3.9114307    
     31500   0.0083812253  -3.9215552     -3.9132281    
     31600   0.0088789187  -3.9232551     -3.9144334    
     31700   0.0088739502  -3.9238294     -3.9150127    
     31800   0.008364834   -3.9216748     -3.9133639    
     31900   0.0088323293  -3.9214299     -3.9126545    
     32000   0.0084398572  -3.9210327     -3.9126473    
     32100   0.0079866346  -3.92297       -3.9150349    
     32200   0.0073251772  -3.9236391     -3.9163612    
     32300   0.0069710879  -3.9230116     -3.9160855    
     32400   0.0072115696  -3.9221564     -3.9149914    
     32500   0.009100902   -3.922422      -3.9133798    
     32600   0.0090662031  -3.9230983     -3.9140906    
     32700   0.0080625039  -3.9228668     -3.9148563    
     32800   0.007964294   -3.9240659     -3.916153     
     32900   0.0074181111  -3.924002      -3.9166317    
     33000   0.0075727821  -3.9250773     -3.9175533    
     33100   0.0068480429  -3.9246992     -3.9178953    
     33200   0.0076940423  -3.9242004     -3.916556     
     33300   0.0077053198  -3.9225431     -3.9148875    
     33400   0.0071924709  -3.9233235     -3.9161775    
     33500   0.0069655538  -3.9245057     -3.9175851    
     33600   0.0069428955  -3.9254113     -3.9185132    
     33700   0.0071321266  -3.9257087     -3.9186225    
     33800   0.006528821   -3.9260738     -3.9195871    
     33900   0.0060394527  -3.9262285     -3.920228     
     34000   0.005433035   -3.9261262     -3.9207282    
     34100   0.0069224067  -3.9271576     -3.9202799    
     34200   0.0066740283  -3.9256125     -3.9189816    
     34300   0.0063157778  -3.925558      -3.919283     
     34400   0.0063232677  -3.9257824     -3.9194999    
     34500   0.0053703942  -3.9260819     -3.9207461    
     34600   0.0058617265  -3.9261112     -3.9202873    
     34700   0.0059233633  -3.9265654     -3.9206802    
     34800   0.0058627304  -3.9259671     -3.9201422    
     34900   0.0053469387  -3.9267544     -3.9214419    
     35000   0.0046305796  -3.9269961     -3.9223954    
     35100   0.0054944824  -3.9280399     -3.9225808    
     35200   0.0055017151  -3.9275857     -3.9221194    
     35300   0.0056594338  -3.9271402     -3.9215173    
     35400   0.0056585724  -3.9270363     -3.9214142    
     35500   0.0060282395  -3.9287094     -3.9227201    
     35600   0.0051257773  -3.9279224     -3.9228297    
     35700   0.0053046043  -3.9280832     -3.9228128    
     35800   0.005333403   -3.9274973     -3.9221983    
     35900   0.0049954635  -3.9267342     -3.921771     
     36000   0.0051301898  -3.9274197     -3.9223226    
     36100   0.0051670445  -3.9286728     -3.9235391    
     36200   0.0044248029  -3.9281143     -3.9237181    
     36300   0.0043416675  -3.928641      -3.9243274    
     36400   0.0041143938  -3.9290391     -3.9249512    
     36500   0.0043421976  -3.9294902     -3.925176     
     36600   0.0045795673  -3.9289917     -3.9244417    
     36700   0.0048661288  -3.9288402     -3.9240055    
     36800   0.0043017874  -3.9291649     -3.9248909    
     36900   0.0042907476  -3.9294064     -3.9251433    
     37000   0.0037667981  -3.9296762     -3.9259337    
     37100   0.0036134416  -3.9295899     -3.9259998    
     37200   0.0038209791  -3.9302441     -3.9264478    
     37300   0.0026404248  -3.9297646     -3.9271413    
     37400   0.0031371381  -3.9307106     -3.9275937    
     37500   0.0028816905  -3.9306564     -3.9277933    
     37600   0.0036597709  -3.930476      -3.9268398    
     37700   0.003946726   -3.9303148     -3.9263935    
     37800   0.0032722907  -3.9302585     -3.9270073    
     37900   0.0031092712  -3.9306354     -3.9275462    
     38000   0.0030559225  -3.930682      -3.9276458    
     38100   0.0029648976  -3.9311935     -3.9282477    
     38200   0.0028683663  -3.9309784     -3.9281285    
     38300   0.0026856316  -3.9313073     -3.928639     
     38400   0.0027993626  -3.9317143     -3.928933     
     38500   0.0024319279  -3.9320077     -3.9295914    
     38600   0.0023495195  -3.931885      -3.9295506    
     38700   0.0023417086  -3.9316613     -3.9293347    
     38800   0.0022545934  -3.9318989     -3.9296589    
     38900   0.0021244438  -3.9324525     -3.9303417    
     39000   0.0019600087  -3.9321491     -3.9302017    
     39100   0.0021068425  -3.9324719     -3.9303787    
     39200   0.0019704483  -3.9327259     -3.9307681    
     39300   0.0018997176  -3.9327552     -3.9308677    
     39400   0.0019329857  -3.932861      -3.9309404    
     39500   0.001683359   -3.9328506     -3.9311781    
     39600   0.0016541301  -3.9330375     -3.931394     
     39700   0.0014926943  -3.9330843     -3.9316013    
     39800   0.0013701081  -3.9332782     -3.9319169    
     39900   0.0013678151  -3.9334572     -3.9320982    
     40000   0.0012608055  -3.933648      -3.9323954    
     40100   0.0011508253  -3.9337454     -3.932602     
     40185   0.0011298089  -3.9337927     -3.9326702    
Loop time of 3.18013 on 16 procs for 10000 steps with 155 atoms

Performance: 1358433.803 tau/day, 3144.523 timesteps/s, 487.401 katom-step/s
1520.9% CPU use with 1 MPI tasks x 16 OpenMP threads

MPI task timing breakdown:
Section |  min time  |  avg time  |  max time  |%varavg| %total
---------------------------------------------------------------
Pair    | 2.4247     | 2.4247     | 2.4247     |   0.0 | 76.25
Neigh   | 8.828e-05  | 8.828e-05  | 8.828e-05  |   0.0 |  0.00
Comm    | 0.093338   | 0.093338   | 0.093338   |   0.0 |  2.94
Output  | 0.066488   | 0.066488   | 0.066488   |   0.0 |  2.09
Modify  | 0.54751    | 0.54751    | 0.54751    |   0.0 | 17.22
Other   |            | 0.04796    |            |       |  1.51

Nlocal:            155 ave         155 max         155 min
Histogram: 1 0 0 0 0 0 0 0 0 0
Nghost:            300 ave         300 max         300 min
Histogram: 1 0 0 0 0 0 0 0 0 0
Neighs:           5169 ave        5169 max        5169 min
Histogram: 1 0 0 0 0 0 0 0 0 0

Total # of neighbors = 5169
Ave neighs/atom = 33.348387
Neighbor list builds = 4
Dangerous builds = 0
unfix mynvt
Total wall time: 0:00:11
